 CRYSTAL
 PRIMVEC
   14.275149902    0.000000000    0.000000000
    0.000000000   14.275149902    0.000000000
    0.000000000    0.000000000   25.093925130
 PRIMCOORD
         151           1
Al        7.192936218    7.136795368   12.197827675    0.000629533    0.000001751    0.000419596
Al        2.859162263    2.849209173   10.457145419   -0.000099468   -0.000086390   -0.000145335
Al        2.864214292    5.706431572   10.464092523   -0.000785585    0.000249172   -0.000276417
Al        2.864226313    8.566985375   10.463989876   -0.000786686   -0.000240802   -0.000274608
Al        2.859142481   11.424282316   10.457011982   -0.000100315    0.000093044   -0.000140069
Al        2.854468841   14.274334744   10.452295518   -0.000019761    0.000003549   -0.000026962
Al        5.720247169    2.821515594   10.456118428    0.000019443   -0.000534615    0.000063853
Al        5.685112067    5.639737537   10.494258573   -0.000621126   -0.000144171   -0.000111489
Al        5.685124666    8.633865153   10.494252916   -0.000622265    0.000147111   -0.000112591
Al        5.720247123   11.451987299   10.456026283    0.000020481    0.000541494    0.000066828
Al        5.715218990   14.274321362   10.453883692   -0.000011076    0.000003878   -0.000009535
Al        8.576221057    2.817611945   10.448475437    0.000016524    0.000028839   -0.000026790
Al        8.686480358    5.634079739   10.479665210   -0.000727978    0.000298863    0.000582519
Al        8.686438036    8.639552255   10.479569639   -0.000727332   -0.000296186    0.000582003
Al        8.576255099   11.455932032   10.448363953    0.000015063   -0.000022793   -0.000023391
Al        8.565488692   14.274370769   10.447669062    0.000000802    0.000004161    0.000093042
Al       11.428706142    2.852734243   10.441282038    0.000042277    0.000042530    0.000197925
Al       11.500051740    5.709093406   10.444802333   -0.000513667   -0.000144158    0.000130212
Al       11.500040574    8.564513897   10.444747176   -0.000513397    0.000148199    0.000130682
Al       11.428734890   11.420903195   10.441247011    0.000042206   -0.000037689    0.000200621
Al       11.420345812   14.274403879   10.442141332    0.000050346    0.000001799    0.000031020
Al       14.277829563    2.853135135   10.447395911    0.000258431   -0.000021883    0.000028164
Al       14.313191484    5.710661797   10.453761986    0.000074985    0.000023772    0.000001256
Al       14.313233415    8.562772592   10.453662626    0.000075243   -0.000019280    0.000002636
Al       14.277858036   11.420350275   10.447329769    0.000257865    0.000027504    0.000029088
Al       14.274173506   14.274338324   10.447988631   -0.000068836    0.000003123   -0.000095601
Al        1.428344095    1.427086441    8.365976570    0.000022524   -0.000060841   -0.000081397
Al        1.446254934    4.281789925    8.367601697   -0.000037403   -0.000031070   -0.000156183
Al        1.468321531    7.136742350    8.364412577   -0.000154227    0.000005526   -0.000294078
Al        1.446296296    9.991714484    8.367497089   -0.000038429    0.000038369   -0.000154904
Al        1.428340515   12.846530929    8.365855072    0.000022487    0.000061082   -0.000078991
Al        4.283209963    1.423326246    8.365835419    0.000111915    0.000275610   -0.000043475
Al        4.297135887    4.274281806    8.381044806   -0.000423305    0.000031169   -0.000856089
Al        4.330785375    7.136766362    8.398792885    0.000012803    0.000007165    0.000068252
Al        4.297139502    9.999282902    8.380976521   -0.000423135   -0.000022475   -0.000852479
Al        4.283231820   12.850240993    8.365743135    0.000111151   -0.000272231   -0.000041289
Al        7.138953670    1.430752102    8.352272244   -0.000006483    0.000120727    0.000042925
Al        7.154149602    4.296242751    8.390755671    0.000476199    0.000002195   -0.000004683
Al        7.174378916    7.136830806    8.519310793   -0.000180457    0.000002983    0.000562992
Al        7.154159385    9.977344447    8.390656504    0.000476100    0.000003908   -0.000002323
Al        7.138965782   12.842872505    8.352195966   -0.000005695   -0.000117864    0.000042758
Al        9.993050923    1.426048376    8.353511492    0.000103705   -0.000192872    0.000129384
Al       10.021118601    4.276057491    8.355772431   -0.000367576   -0.000137092    0.000387459
Al       10.016992947    7.136867458    8.382852037   -0.000419768    0.000002524    0.000116128
Al       10.021149625    9.997635921    8.355680180   -0.000366931    0.000142868    0.000388653
Al        9.993103415   12.847663816    8.353425586    0.000104125    0.000195185    0.000130506
Al       12.848257436    1.426292465    8.357900465    0.000088906   -0.000024112    0.000082998
Al       12.870425777    4.281380692    8.353824879   -0.000127328    0.000025133    0.000207779
Al       12.882500905    7.136795099    8.347017412   -0.000550314    0.000005077    0.000137765
Al       12.870460975    9.992247022    8.353771314   -0.000126433   -0.000019368    0.000208977
Al       12.848283825   12.847350247    8.357897166    0.000089165    0.000026519    0.000083754
Al        2.864300059    2.857139141    6.273011240    0.000135614    0.000113512    0.000080382
Al        2.879364332    5.712029316    6.281992747    0.000116721    0.000108724    0.000045571
Al        2.879395049    8.561676653    6.281934078    0.000117058   -0.000099818    0.000045725
Al        2.864319994   11.416659358    6.272960396    0.000136322   -0.000109191    0.000079699
Al        2.858295778   14.274492575    6.266892063    0.000050993    0.000002893   -0.000094177
Al        5.718081175    2.863717376    6.277518408   -0.000004247   -0.000010939    0.000056722
Al        5.739835771    5.725145952    6.298076673   -0.000094327   -0.000026534    0.000198168
Al        5.739824311    8.548686157    6.298060786   -0.000092827    0.000032863    0.000197699
Al        5.718120303   11.410126028    6.277477771   -0.000004298    0.000015883    0.000054709
Al        5.707620799   14.274523566    6.276560651    0.000145849    0.000002145   -0.000164174
Al        8.566281788    2.864047203    6.270855706   -0.000110155   -0.000012987    0.000164922
Al        8.562875480    5.727048279    6.292565605   -0.000001633   -0.000066519    0.000301338
Al        8.562920319    8.546860340    6.292441726   -0.000001790    0.000074207    0.000303115
Al        8.566337880   11.409910136    6.270788588   -0.000109601    0.000017334    0.000164514
Al        8.559029621   14.274545290    6.270958348    0.000056467    0.000003239    0.000031183
Al       11.423905787    2.857129944    6.262665311    0.000113296   -0.000083240   -0.000060819
Al       11.428076188    5.713629213    6.267116852    0.000048036    0.000047435    0.000205991
Al       11.428148191    8.560269956    6.267066354    0.000046718   -0.000041167    0.000206569
Al       11.423966283   11.416793904    6.262633647    0.000111973    0.000087522   -0.000061733
Al       11.410315063   14.274559311    6.258514803    0.000146577    0.000001717   -0.000028042
Al       14.282634873    2.860557474    6.262903193    0.000117779   -0.000025279   -0.000058330
Al       14.293821502    5.711211525    6.275437606    0.000066051    0.000055300   -0.000119371
Al       14.293844597    8.562640056    6.275383870    0.000065774   -0.000049040   -0.000120177
Al       14.282686877   11.413341731    6.262883236    0.000116583    0.000030587   -0.000059474
Al       14.273218458   14.274543025    6.262494449    0.000132705    0.000002076   -0.000053578
Al        1.438860463    1.436966355    4.116745240   -0.000074759   -0.000047871   -0.000060485
Al        1.435201456    4.287575654    4.126012144    0.000003126   -0.000084761   -0.000112742
Al        1.438509533    7.137230616    4.125863932    0.000078637    0.000000530   -0.000075609
Al        1.435236977    9.986846162    4.125985612    0.000003198    0.000086446   -0.000113002
Al        1.438865948   12.837496750    4.116742516   -0.000075558    0.000051203   -0.000058921
Al        4.287196790    1.427809458    4.126225482    0.000041455   -0.000009153   -0.000136757
Al        4.293110922    4.289003029    4.138536836    0.000102985   -0.000076321   -0.000080642
Al        4.300619849    7.137170418    4.128959388    0.000075565    0.000000877    0.000003423
Al        4.293135812    9.985358068    4.138504093    0.000100673    0.000078503   -0.000079325
Al        4.287229396   12.846517352    4.126212567    0.000041248    0.000013911   -0.000134663
Al        7.136234599    1.428364216    4.122763236    0.000115861    0.000024906   -0.000005135
Al        7.141096312    4.294077997    4.125587071    0.000022632    0.000010552    0.000133083
Al        7.142407054    7.137197278    4.126726252    0.000113238    0.000000053    0.000322719
Al        7.141153036    9.980287702    4.125549940    0.000021828   -0.000006973    0.000133917
Al        7.136233396   12.845982251    4.122759416    0.000114788   -0.000021006   -0.000004153
Al        9.987740467    1.427326673    4.121282435    0.000027275    0.000025114    0.000028629
Al        9.990666317    4.288303032    4.132608620    0.000095599    0.000089934    0.000090659
Al        9.987547802    7.137240449    4.121847638    0.000086262    0.000000773    0.000315390
Al        9.990716129    9.986154145    4.132566633    0.000095448   -0.000089141    0.000091698
Al        9.987768733   12.847121212    4.121265412    0.000027132   -0.000021223    0.000030662
Al       12.839302242    1.436628681    4.114897375    0.000059910   -0.000028987   -0.000033486
Al       12.854901337    4.286037949    4.122241492   -0.000019538    0.000125412   -0.000030622
Al       12.856847829    7.137227696    4.120523290    0.000017980    0.000000743    0.000069879
Al       12.854974006    9.988447592    4.122205137   -0.000020438   -0.000122543   -0.000029458
Al       12.839309735   12.837860423    4.114886289    0.000059960    0.000031621   -0.000030930
Al        0.000000000    0.000000000    2.018785000    0.000251110   -0.000009070    0.008455306
Al        0.000000000    2.855029970    2.018785000    0.000201908    0.002188289    0.008447515
Al        0.000000000    5.710059940    2.018785000    0.000355788   -0.000233366    0.008815141
Al        0.000000000    8.565089900    2.018785000    0.000355193    0.000211568    0.008821221
Al        0.000000000   11.420119870    2.018785000    0.000203807   -0.002208330    0.008442515
Al        2.855029970    0.000000000    2.018785000    0.002332357   -0.000008526    0.008493466
Al        2.855029970    2.855029970    2.018785000    0.000777528    0.000652666    0.008723885
Al        2.855029970    5.710059940    2.018785000    0.001335367    0.000007401    0.008465518
Al        2.855029970    8.565089900    2.018785000    0.001336891   -0.000031581    0.008471660
Al        2.855029970   11.420119870    2.018785000    0.000774382   -0.000668170    0.008721513
Al        5.710059940    0.000000000    2.018785000   -0.000365059   -0.000008856    0.008855755
Al        5.710059940    2.855029970    2.018785000   -0.000150855    0.001144957    0.008414573
Al        5.710059940    5.710059940    2.018785000    0.000289869    0.000289652    0.007234009
Al        5.710059940    8.565089900    2.018785000    0.000291379   -0.000310474    0.007229919
Al        5.710059940   11.420119870    2.018785000   -0.000146336   -0.001165722    0.008412221
Al        8.565089900    0.000000000    2.018785000    0.000070567   -0.000008902    0.008754348
Al        8.565089900    2.855029970    2.018785000   -0.000040127    0.001158759    0.008203179
Al        8.565089900    5.710059940    2.018785000   -0.000267123    0.000262290    0.006953547
Al        8.565089900    8.565089900    2.018785000   -0.000269050   -0.000284287    0.006964282
Al        8.565089900   11.420119870    2.018785000   -0.000040911   -0.001172844    0.008202909
Al       11.420119870    0.000000000    2.018785000   -0.002074559   -0.000007762    0.008375184
Al       11.420119870    2.855029970    2.018785000   -0.000506435    0.000660405    0.008458380
Al       11.420119870    5.710059940    2.018785000   -0.000894917   -0.000112395    0.008174603
Al       11.420119870    8.565089900    2.018785000   -0.000891927    0.000092553    0.008177061
Al       11.420119870   11.420119870    2.018785000   -0.000507525   -0.000678589    0.008451743
Al        1.427500000    1.427500000    0.000000000    0.000494167    0.000385000   -0.007696642
Al        1.427500000    4.282529970    0.000000000    0.000228459    0.000063695   -0.006959557
Al        1.427500000    7.137559940    0.000000000    0.000506570   -0.000001189   -0.008595269
Al        1.427500000    9.992589900    0.000000000    0.000227569   -0.000066820   -0.006962334
Al        1.427500000   12.847619870    0.000000000    0.000492162   -0.000384422   -0.007691635
Al        4.282529970    1.427500000    0.000000000    0.000129458    0.000261322   -0.007000621
Al        4.282529970    4.282529970    0.000000000    0.001592533    0.001515049   -0.009431785
Al        4.282529970    7.137559940    0.000000000    0.000022500    0.000000206   -0.010342837
Al        4.282529970    9.992589900    0.000000000    0.001593226   -0.001514751   -0.009434438
Al        4.282529970   12.847619870    0.000000000    0.000128600   -0.000258855   -0.006998257
Al        7.137559940    1.427500000    0.000000000    0.000169113    0.000546931   -0.008665899
Al        7.137559940    4.282529970    0.000000000    0.000129281   -0.000007584   -0.010408244
Al        7.137559940    7.137559940    0.000000000    0.000062048    0.000001214   -0.008218092
Al        7.137559940    9.992589900    0.000000000    0.000128354    0.000006809   -0.010410338
Al        7.137559940   12.847619870    0.000000000    0.000169582   -0.000543722   -0.008658847
Al        9.992589900    1.427500000    0.000000000   -0.000054430    0.000322413   -0.007068567
Al        9.992589900    4.282529970    0.000000000   -0.001456299    0.001530122   -0.009608608
Al        9.992589900    7.137559940    0.000000000    0.000038668   -0.000000907   -0.010491398
Al        9.992589900    9.992589900    0.000000000   -0.001455287   -0.001531802   -0.009611569
Al        9.992589900   12.847619870    0.000000000   -0.000051799   -0.000322336   -0.007063551
Al       12.847619870    1.427500000    0.000000000   -0.000444535    0.000526002   -0.007697485
Al       12.847619870    4.282529970    0.000000000   -0.000378646    0.000118566   -0.007083215
Al       12.847619870    7.137559940    0.000000000   -0.000588004   -0.000000612   -0.008726524
Al       12.847619870    9.992589900    0.000000000   -0.000379805   -0.000119503   -0.007085637
Al       12.847619870   12.847619870    0.000000000   -0.000442251   -0.000526750   -0.007699761
