 CRYSTAL
 PRIMVEC
   14.275149902    0.000000000    0.000000000
    0.000000000   14.275149902    0.000000000
    0.000000000    0.000000000   25.093925130
 PRIMCOORD
         151           1
Al        8.461573690    8.460754358   10.519003161   -0.000170716   -0.000167673   -0.000234225
Al        2.860734002    2.860229353   10.440522233    0.000000120   -0.000000245    0.000059540
Al        2.850363157    5.714870061   10.442469147   -0.000023948   -0.000135759    0.000063294
Al        2.831924504    8.574406020   10.447577536    0.000043455   -0.000199989    0.000221842
Al        2.819399388   11.425442559   10.450654114    0.000412090   -0.000231890    0.000014137
Al        2.843090657   14.283476686   10.443638787    0.000036146   -0.000190764   -0.000015702
Al        5.715406371    2.849741512   10.442438117   -0.000136927   -0.000021564    0.000063600
Al        5.698278228    5.697604274   10.446539862    0.000075926    0.000077844    0.000026522
Al        5.647790782    8.554537020   10.452509168   -0.000113208    0.000125637    0.000073945
Al        5.634549127   11.413810042   10.451281171    0.000255752    0.000183774    0.000229948
Al        5.690139726   14.274001410   10.447960759    0.000091148    0.000056234   -0.000017667
Al        8.574957675    2.831140831   10.447507279   -0.000202306    0.000051187    0.000223838
Al        8.555223622    5.646989956   10.452406970    0.000119188   -0.000107294    0.000076976
Al        9.965938328    9.965027845   12.222941871   -0.000234883   -0.000229846   -0.000830900
Al        8.448683443   11.470207919   10.525160804    0.000426598    0.000298217   -0.000534188
Al        8.547463708   14.287176254   10.458056567    0.000066113    0.000305641    0.000002745
Al       11.425968329    2.818444373   10.450598288   -0.000232200    0.000420275    0.000017301
Al       11.414457300    5.633624314   10.451235763    0.000177421    0.000262074    0.000231107
Al       11.470946787    8.447754776   10.525125467    0.000297125    0.000425458   -0.000534769
Al       11.467906237   11.466892764   10.517894405    0.000155442    0.000167805   -0.000228217
Al       11.407967799   14.279280688   10.458641328    0.000108730    0.000420132   -0.000099483
Al       14.283972256    2.842441643   10.443621209   -0.000191696    0.000036835   -0.000014905
Al       14.274595005    5.689462206   10.447960210    0.000054563    0.000093700   -0.000016613
Al       14.287871620    8.546761736   10.458041450    0.000310735    0.000069146    0.000004333
Al       14.280225102   11.407273916   10.458625032    0.000415571    0.000113211   -0.000097803
Al       14.269538873   14.268877927   10.449132156   -0.000069306   -0.000066216    0.000002840
Al        1.426199625    1.425651490    8.355011862   -0.000099191   -0.000098933    0.000125619
Al        1.429836904    4.280342418    8.355204487   -0.000050979   -0.000108113    0.000114520
Al        1.417601399    7.135434855    8.358450634    0.000060241   -0.000055400    0.000006887
Al        1.390226008    9.990294819    8.355064988    0.000355868   -0.000079484   -0.000043460
Al        1.405482944   12.844856726    8.359545608    0.000273948   -0.000023701   -0.000010599
Al        4.280883416    1.429299126    8.355193707   -0.000109267   -0.000048323    0.000115006
Al        4.283497078    4.282984538    8.355464182    0.000017487    0.000016684    0.000054343
Al        4.268198889    7.138965371    8.355885731    0.000158727   -0.000011871    0.000079060
Al        4.257645222    9.995282184    8.349125411    0.000284802   -0.000117859    0.000187664
Al        4.256248984   12.850151313    8.356181563    0.000281140   -0.000129213    0.000079205
Al        7.135979319    1.416958231    8.358432812   -0.000055591    0.000061653    0.000003170
Al        7.139475508    4.267564285    8.355803856   -0.000009329    0.000160702    0.000082854
Al        7.121042867    7.120431755    8.374059177   -0.000028144   -0.000029300   -0.000178063
Al        7.126400326    9.982818752    8.406302277    0.000319831   -0.000125141    0.000140051
Al        7.109395596   12.843054506    8.375015363    0.000059438   -0.000199624   -0.000004087
Al        9.990868611    1.389482320    8.355055286   -0.000082484    0.000354807   -0.000047524
Al        9.995842868    4.256879652    8.349033410   -0.000122915    0.000287724    0.000188644
Al        9.983439325    7.125613962    8.406245911   -0.000124414    0.000325197    0.000140753
Al        9.962865065    9.962107570    8.576133638    0.000200945    0.000199807   -0.000612562
Al        9.967535866   12.796627643    8.412874824    0.000278286    0.000380515   -0.000053408
Al       12.845418918    1.404730942    8.359544852   -0.000024455    0.000276422   -0.000011495
Al       12.850698662    4.255519871    8.356131180   -0.000132026    0.000283789    0.000080827
Al       12.843704642    7.108636665    8.374986748   -0.000204233    0.000062561   -0.000003143
Al       12.797371178    9.966767299    8.412830190    0.000378392    0.000281775   -0.000051866
Al       12.831381116   12.830595009    8.378256654    0.000060212    0.000065534   -0.000093862
Al        2.856893407    2.856489246    6.254732885    0.000006642    0.000007756    0.000118563
Al        2.853414311    5.718547410    6.257887492   -0.000037352    0.000004526    0.000074125
Al        2.838218601    8.570028536    6.271617914    0.000078936   -0.000145021    0.000087742
Al        2.832817711   11.419631518    6.271381081    0.000080430   -0.000146149    0.000132539
Al        2.844866451   14.270212284    6.257725693    0.000097294   -0.000138609    0.000107765
Al        5.718929396    2.852957845    6.257868125    0.000007894   -0.000037804    0.000075006
Al        5.712961119    5.712521296    6.266924875   -0.000046769   -0.000047749    0.000068097
Al        5.706205868    8.569725738    6.278610088    0.000051254   -0.000096904    0.000055003
Al        5.701478343   11.415537353    6.276079387   -0.000052194   -0.000280416    0.000209181
Al        5.705848636   14.269437623    6.265479914   -0.000003310   -0.000121671    0.000165072
Al        8.570450730    2.837640857    6.271583110   -0.000146087    0.000080257    0.000088480
Al        8.570183828    5.705635618    6.278558882   -0.000097534    0.000051326    0.000056677
Al        8.570184056    8.569606560    6.315421058   -0.000054186   -0.000053741   -0.000164044
Al        8.563800386   11.384949929    6.312815941   -0.000061526    0.000226081   -0.000127776
Al        8.562073097   14.247292407    6.279511526   -0.000071402    0.000074756    0.000041581
Al       11.420077730    2.832199889    6.271359163   -0.000149841    0.000080985    0.000131457
Al       11.416017409    5.700864267    6.276029791   -0.000284951   -0.000050642    0.000209054
Al       11.385518540    8.563161011    6.312822372    0.000219613   -0.000058394   -0.000127947
Al       11.379375211   11.378721092    6.317465270    0.000286400    0.000293304   -0.000384157
Al       11.405999154   14.240629146    6.281458669   -0.000030822    0.000212701   -0.000057193
Al       14.270634301    2.844343841    6.257724730   -0.000138749    0.000098093    0.000107178
Al       14.269922011    5.705332324    6.265490962   -0.000124169   -0.000004570    0.000161662
Al       14.247873433    8.561532817    6.279525720    0.000071147   -0.000069199    0.000039349
Al       14.241268117   11.405438475    6.281440204    0.000209531   -0.000025319   -0.000056857
Al       14.260810329   14.260273297    6.267580783    0.000038794    0.000039360   -0.000016952
Al        1.415669607    1.415415241    4.112642080   -0.000042053   -0.000041758    0.000045801
Al        1.416804001    4.291497468    4.112430999    0.000014399   -0.000049637    0.000092526
Al        1.418941721    7.142906266    4.123408800    0.000077519   -0.000048912    0.000004454
Al        1.411977346    9.991478910    4.122948018    0.000112238   -0.000016445    0.000052100
Al        1.415972867   12.839742806    4.123349183    0.000088042   -0.000066315    0.000039113
Al        4.291723805    1.416597016    4.112434132   -0.000047938    0.000012482    0.000091910
Al        4.293648365    4.293440151    4.113117644   -0.000068489   -0.000068496    0.000074258
Al        4.277792345    7.144673990    4.123843982    0.000034806   -0.000119454   -0.000054620
Al        4.273167893    9.992468795    4.122577707    0.000103412    0.000013691   -0.000012430
Al        4.274939137   12.840490409    4.122970264    0.000049998    0.000067812   -0.000007742
Al        7.143153693    1.418643521    4.123416908   -0.000048246    0.000078700    0.000003466
Al        7.144889896    4.277509467    4.123829833   -0.000119155    0.000032881   -0.000054494
Al        7.140746622    7.140462305    4.140425908    0.000035403    0.000036253   -0.000117608
Al        7.141972626    9.985925997    4.130712165    0.000011620    0.000086178    0.000145736
Al        7.139321040   12.831722861    4.138636963   -0.000067848    0.000100885   -0.000024675
Al        9.991760114    1.411650066    4.122971019   -0.000019145    0.000111508    0.000049478
Al        9.992698621    4.272854411    4.122551098    0.000013074    0.000101341   -0.000012064
Al        9.986216064    7.141658252    4.130686413    0.000084928    0.000011418    0.000147416
Al        9.982153004    9.981828297    4.137682497    0.000054782    0.000055543    0.000120861
Al        9.985534283   12.820568825    4.132523415   -0.000020444    0.000081853    0.000023252
Al       12.840029190    1.415633502    4.123355684   -0.000071808    0.000089269    0.000038103
Al       12.840731309    4.274624107    4.122956801    0.000064918    0.000049429   -0.000007337
Al       12.832025598    7.139003725    4.138640944    0.000098133   -0.000066925   -0.000025309
Al       12.820901993    9.985180358    4.132516223    0.000079624   -0.000016528    0.000023426
Al       12.829484712   12.829130756    4.140865825    0.000096823    0.000099419   -0.000170083
Al        0.000000000    0.000000000    2.018785000   -0.000998394   -0.001006382    0.008576412
Al        0.000000000    2.855029970    2.018785000   -0.002490243   -0.000100418    0.008317449
Al        0.000000000    5.710059940    2.018785000   -0.000957305    0.000709994    0.008625856
Al        0.000000000    8.565089900    2.018785000   -0.001504418    0.000011390    0.008443252
Al        0.000000000   11.420119870    2.018785000   -0.001538456   -0.000229579    0.008453397
Al        2.855029970    0.000000000    2.018785000   -0.000094549   -0.002497234    0.008316482
Al        2.855029970    2.855029970    2.018785000    0.000000346   -0.000006355    0.008318199
Al        2.855029970    5.710059940    2.018785000    0.000025219    0.002420397    0.008461335
Al        2.855029970    8.565089900    2.018785000   -0.000173760   -0.000119520    0.008810494
Al        2.855029970   11.420119870    2.018785000   -0.000243914    0.000076300    0.008752694
Al        5.710059940    0.000000000    2.018785000    0.000716790   -0.000963404    0.008626306
Al        5.710059940    2.855029970    2.018785000    0.002428080    0.000019532    0.008460239
Al        5.710059940    5.710059940    2.018785000    0.000846525    0.000840362    0.008728048
Al        5.710059940    8.565089900    2.018785000    0.001117263   -0.000067623    0.008505272
Al        5.710059940   11.420119870    2.018785000    0.001040473   -0.000197976    0.008471777
Al        8.565089900    0.000000000    2.018785000    0.000020076   -0.001509882    0.008446124
Al        8.565089900    2.855029970    2.018785000   -0.000113977   -0.000181450    0.008811987
Al        8.565089900    5.710059940    2.018785000   -0.000062235    0.001109899    0.008505546
Al        8.565089900    8.565089900    2.018785000    0.000165680    0.000158758    0.007497704
Al        8.565089900   11.420119870    2.018785000    0.000182978   -0.000682272    0.007478030
Al       11.420119870    0.000000000    2.018785000   -0.000222758   -0.001545269    0.008454879
Al       11.420119870    2.855029970    2.018785000    0.000083177   -0.000252047    0.008754695
Al       11.420119870    5.710059940    2.018785000   -0.000190050    0.001033205    0.008471061
Al       11.420119870    8.565089900    2.018785000   -0.000674427    0.000174301    0.007476485
Al       11.420119870   11.420119870    2.018785000   -0.000692311   -0.000700135    0.007468151
Al        1.427500000    1.427500000    0.000000000   -0.000496910   -0.000499193   -0.007632003
Al        1.427500000    4.282529970    0.000000000   -0.000559820    0.000377268   -0.007606876
Al        1.427500000    7.137559940    0.000000000   -0.000310535    0.000136653   -0.007092659
Al        1.427500000    9.992589900    0.000000000   -0.000515994   -0.000038834   -0.008644472
Al        1.427500000   12.847619870    0.000000000   -0.000257012   -0.000160925   -0.007065476
Al        4.282529970    1.427500000    0.000000000    0.000376739   -0.000559821   -0.007608376
Al        4.282529970    4.282529970    0.000000000    0.000441268    0.000439355   -0.007564007
Al        4.282529970    7.137559940    0.000000000    0.000358183    0.000175305   -0.007129874
Al        4.282529970    9.992589900    0.000000000    0.000526737   -0.000038362   -0.008749484
Al        4.282529970   12.847619870    0.000000000    0.000275965   -0.000201322   -0.007143105
Al        7.137559940    1.427500000    0.000000000    0.000137973   -0.000308670   -0.007092297
Al        7.137559940    4.282529970    0.000000000    0.000177903    0.000357934   -0.007131046
Al        7.137559940    7.137559940    0.000000000    0.001520143    0.001517119   -0.009569061
Al        7.137559940    9.992589900    0.000000000   -0.000010538    0.000003610   -0.010382403
Al        7.137559940   12.847619870    0.000000000    0.001450744   -0.001584403   -0.009527957
Al        9.992589900    1.427500000    0.000000000   -0.000036373   -0.000515910   -0.008644070
Al        9.992589900    4.282529970    0.000000000   -0.000035924    0.000526800   -0.008751794
Al        9.992589900    7.137559940    0.000000000    0.000004256   -0.000011702   -0.010384437
Al        9.992589900    9.992589900    0.000000000    0.000046284    0.000046179   -0.008163377
Al        9.992589900   12.847619870    0.000000000    0.000016256   -0.000015100   -0.010301381
Al       12.847619870    1.427500000    0.000000000   -0.000161112   -0.000257004   -0.007065509
Al       12.847619870    4.282529970    0.000000000   -0.000202334    0.000278107   -0.007143992
Al       12.847619870    7.137559940    0.000000000   -0.001583633    0.001449645   -0.009529300
Al       12.847619870    9.992589900    0.000000000   -0.000014284    0.000015764   -0.010302031
Al       12.847619870   12.847619870    0.000000000   -0.001538647   -0.001540370   -0.009442058
