 CRYSTAL
 PRIMVEC
   14.275149902    0.000000000    0.000000000
    0.000000000   14.275149902    0.000000000
    0.000000000    0.000000000   25.093925130
 PRIMCOORD
         151           1
Al        8.567744901    7.135641241   12.526721713   -0.000039590    0.000007782   -0.000990027
Al        2.851921231    2.854086956   10.452597561    0.000038999    0.000055342    0.000177237
Al        2.858241296    5.709592622   10.457455342   -0.000210931    0.000004401    0.000287199
Al        2.858090354    8.561449579   10.457622992   -0.000209974    0.000020572    0.000271204
Al        2.851765667   11.417244208   10.452759949    0.000031722   -0.000032735    0.000170529
Al        2.854111021   14.273343434   10.448675235   -0.000023024    0.000003940    0.000063472
Al        5.707691885    2.861277531   10.452211983    0.000153806   -0.000285700    0.000022606
Al        5.732545804    5.716441979   10.506112805   -0.000262809   -0.000208544   -0.000238580
Al        5.732372352    8.555097588   10.506296921   -0.000259106    0.000225973   -0.000244754
Al        5.707475991   11.410529278   10.452432368    0.000158645    0.000299885    0.000006572
Al        5.704864119   14.273507461   10.443342120    0.000040097    0.000006050    0.000117359
Al        8.564645501    2.781142911   10.435261103   -0.000061473    0.000228749    0.000011724
Al        8.562408687    5.584968004   10.345895588    0.000545405    0.000532975   -0.000172795
Al        8.562219525    8.687278199   10.346301379    0.000547561   -0.000537887   -0.000178615
Al        8.564465158   11.491349865   10.435512986   -0.000060470   -0.000222938   -0.000001248
Al        8.563641568   14.273912967   10.445106735    0.000051409   -0.000005472   -0.000105102
Al       11.419162328    2.861427217   10.446543442    0.000059318   -0.000176152    0.000060879
Al       11.400281191    5.714822292   10.490753640    0.000173911    0.000057243    0.000196344
Al       11.400130028    8.556911656   10.490958229    0.000177355   -0.000036276    0.000187758
Al       11.419088031   11.410513765   10.446812841    0.000052952    0.000191236    0.000052868
Al       11.424446931   14.273578233   10.443980319   -0.000068757    0.000005214   -0.000074683
Al       14.275598161    2.855232274   10.451507240   -0.000069514    0.000076788    0.000063569
Al       14.273331112    5.710594901   10.450883115   -0.000194901    0.000033853    0.000287980
Al       14.273256952    8.561162824   10.450856975   -0.000196358   -0.000022989    0.000285089
Al       14.275530757   11.416787207   10.451688441   -0.000070083   -0.000073854    0.000057122
Al       14.277669913   14.273705928   10.449378705   -0.000051929   -0.000004489   -0.000046888
Al        1.427423773    1.426537848    8.365043084   -0.000070894    0.000004018    0.000173295
Al        1.427203162    4.283277149    8.363949603   -0.000057795    0.000101255    0.000375657
Al        1.426607836    7.135814748    8.358859209    0.000052075    0.000006521    0.000446941
Al        1.427152403    9.988301532    8.364037098   -0.000060653   -0.000089349    0.000371897
Al        1.427347026   12.845075953    8.365072145   -0.000067361    0.000002432    0.000164030
Al        4.278212070    1.429684163    8.363192579   -0.000034046   -0.000080390    0.000221688
Al        4.278534834    4.288097078    8.380890987    0.000066656   -0.000176447   -0.000052159
Al        4.294375962    7.135668110    8.394115185    0.000000438    0.000017411   -0.000216676
Al        4.278444973    9.983278943    8.381156863    0.000066472    0.000204719   -0.000053680
Al        4.278174268   12.841821622    8.363277803   -0.000032885    0.000076734    0.000221467
Al        7.127131946    1.420881366    8.347790529    0.000052659    0.000011555    0.000074468
Al        7.113415623    4.262460054    8.350980710    0.000031246    0.000151346   -0.000162955
Al        7.141033520    7.136022081    8.374518036   -0.000107807    0.000009809    0.000031789
Al        7.113329265   10.009471298    8.351155501    0.000026364   -0.000140351   -0.000162940
Al        7.127104174   12.851069130    8.347768045    0.000055561   -0.000004754    0.000072385
Al       10.001664551    1.420423196    8.346405517   -0.000037258    0.000115961    0.000063818
Al       10.014080469    4.263845128    8.345015348    0.000014510    0.000035393   -0.000049643
Al        9.988106296    7.136093384    8.372789393    0.000017098    0.000007689   -0.000492861
Al       10.013947575   10.008183911    8.345265323    0.000017024   -0.000020987   -0.000049080
Al       10.001716256   12.851601712    8.346505738   -0.000040969   -0.000111587    0.000059701
Al       12.851181643    1.428478139    8.363251690    0.000041145    0.000000133    0.000043727
Al       12.851191029    4.284973478    8.370322917   -0.000142400    0.000065699    0.000231086
Al       12.835885710    7.135968456    8.376598727   -0.000036382    0.000009686    0.000412196
Al       12.851094708    9.986939101    8.370526927   -0.000137285   -0.000052244    0.000222817
Al       12.851207541   12.843436818    8.363408169    0.000038424    0.000000357    0.000037775
Al        2.857536490    2.862797200    6.268651770   -0.000119070   -0.000038908    0.000198944
Al        2.856545159    5.711843617    6.276829424   -0.000069912    0.000029908    0.000203397
Al        2.856526372    8.560036293    6.276857741   -0.000068165   -0.000005677    0.000200679
Al        2.857533364   11.409179001    6.268685302   -0.000123882    0.000052917    0.000205899
Al        2.858072312   14.273588495    6.266023830   -0.000091464    0.000000934    0.000225288
Al        5.701089190    2.852155888    6.261102661    0.000099152   -0.000094215    0.000097469
Al        5.709134146    5.710865493    6.283360573    0.000076487   -0.000101661   -0.000334470
Al        5.709026301    8.561069111    6.283422652    0.000082670    0.000125246   -0.000330780
Al        5.701123311   11.419814389    6.261205128    0.000097868    0.000107396    0.000092376
Al        5.708108969   14.273622218    6.259402602   -0.000074206    0.000003691    0.000198944
Al        8.562704303    2.850203104    6.262880567    0.000103228   -0.000106507    0.000047088
Al        8.561753462    5.712009823    6.273247658    0.000140909   -0.000086894   -0.000373603
Al        8.561705292    8.560068052    6.273189094    0.000144968    0.000112255   -0.000372976
Al        8.562724410   11.422042910    6.262854187    0.000102933    0.000114171    0.000055632
Al        8.563832987   14.273705132    6.269409803    0.000035970    0.000001306    0.000006177
Al       11.426501239    2.849288440    6.255392862   -0.000019489    0.000154697    0.000390844
Al       11.415422684    5.709543463    6.271627996    0.000114640    0.000025119    0.000287024
Al       11.415465042    8.562708971    6.271697390    0.000112957   -0.000001435    0.000286012
Al       11.426492604   11.422960978    6.255518412   -0.000013683   -0.000140812    0.000390066
Al       11.421028528   14.273742744    6.258924798    0.000110618    0.000001232    0.000110956
Al       14.273930705    2.860431884    6.266130901   -0.000061057    0.000116215    0.000240900
Al       14.272805375    5.710494114    6.270386701   -0.000026689    0.000098211    0.000389521
Al       14.272842920    8.561496110    6.270363262   -0.000033835   -0.000068395    0.000382776
Al       14.273917478   11.411645297    6.266177658   -0.000056032   -0.000101081    0.000241872
Al       14.273178107   14.273678477    6.266167676   -0.000027191   -0.000002125    0.000161359
Al        1.428284017    1.432469447    4.119501483   -0.000043578    0.000059421    0.000161721
Al        1.428827240    4.285129788    4.125092296   -0.000108217    0.000106085    0.000154668
Al        1.428819651    7.136658194    4.122155442   -0.000087938    0.000016719    0.000186178
Al        1.428898227    9.988216367    4.125062232   -0.000113287   -0.000094680    0.000159578
Al        1.428257594   12.841044879    4.119491751   -0.000041125   -0.000066197    0.000169827
Al        4.284323731    1.430489489    4.119473825   -0.000031208   -0.000029387    0.000111072
Al        4.278823823    4.284715860    4.125438759   -0.000110945   -0.000061581    0.000055143
Al        4.287034307    7.136603998    4.130696259   -0.000110623    0.000007965   -0.000037170
Al        4.278858569    9.988567958    4.125398579   -0.000111914    0.000076011    0.000062754
Al        4.284320107   12.842789642    4.119538472   -0.000029978    0.000032626    0.000109729
Al        7.135999785    1.426052667    4.117274038   -0.000014723   -0.000008513    0.000085730
Al        7.134836008    4.286273269    4.127901776    0.000054680   -0.000103288   -0.000112887
Al        7.137183847    7.136609656    4.121016675    0.000057932    0.000011895   -0.000113427
Al        7.134862001    9.986976829    4.127908434    0.000062713    0.000117355   -0.000108595
Al        7.135966025   12.847250054    4.117329832   -0.000011529    0.000009985    0.000084521
Al        9.992026522    1.425619041    4.116775829    0.000087530   -0.000005635    0.000076311
Al        9.991011256    4.285256341    4.124422723    0.000159815   -0.000086237    0.000062802
Al        9.988170824    7.136688677    4.117847185    0.000161735    0.000011889    0.000002903
Al        9.991033378    9.988111446    4.124504820    0.000159618    0.000101800    0.000057066
Al        9.992076926   12.847834904    4.116815614    0.000084649    0.000005083    0.000076734
Al       12.846041083    1.429066047    4.118362768   -0.000005475    0.000067693    0.000149698
Al       12.851719159    4.282553480    4.121887830   -0.000001531    0.000073829    0.000171587
Al       12.843860986    7.136661311    4.124455074   -0.000023541    0.000014239    0.000240010
Al       12.851845720    9.990851426    4.121890154    0.000001676   -0.000056559    0.000175081
Al       12.846029206   12.844436146    4.118412385   -0.000007701   -0.000074218    0.000150824
Al        0.000000000    0.000000000    2.018785000   -0.000288025   -0.000022829    0.007583833
Al        0.000000000    2.855029970    2.018785000   -0.000277931    0.000756855    0.008114736
Al        0.000000000    5.710059940    2.018785000    0.000238366   -0.000074877    0.007689392
Al        0.000000000    8.565089900    2.018785000    0.000236613    0.000023073    0.007711381
Al        0.000000000   11.420119870    2.018785000   -0.000275436   -0.000803176    0.008121477
Al        2.855029970    0.000000000    2.018785000    0.000455676   -0.000027964    0.007619335
Al        2.855029970    2.855029970    2.018785000    0.000446885    0.000814901    0.008186430
Al        2.855029970    5.710059940    2.018785000   -0.000025301   -0.000022846    0.007811612
Al        2.855029970    8.565089900    2.018785000   -0.000020228   -0.000030629    0.007816966
Al        2.855029970   11.420119870    2.018785000    0.000440579   -0.000858697    0.008185714
Al        5.710059940    0.000000000    2.018785000    0.000193145   -0.000023879    0.008321864
Al        5.710059940    2.855029970    2.018785000    0.000171630    0.000152647    0.008242922
Al        5.710059940    5.710059940    2.018785000    0.000523059   -0.000167563    0.008199167
Al        5.710059940    8.565089900    2.018785000    0.000524104    0.000113886    0.008196261
Al        5.710059940   11.420119870    2.018785000    0.000175338   -0.000197959    0.008248190
Al        8.565089900    0.000000000    2.018785000   -0.000110672   -0.000025135    0.008117796
Al        8.565089900    2.855029970    2.018785000   -0.000168125    0.000781168    0.007658855
Al        8.565089900    5.710059940    2.018785000   -0.000197902    0.000124737    0.006945638
Al        8.565089900    8.565089900    2.018785000   -0.000197743   -0.000176808    0.006970818
Al        8.565089900   11.420119870    2.018785000   -0.000167181   -0.000818766    0.007670946
Al       11.420119870    0.000000000    2.018785000   -0.000269231   -0.000020958    0.008275997
Al       11.420119870    2.855029970    2.018785000   -0.000223260    0.000046824    0.008152958
Al       11.420119870    5.710059940    2.018785000   -0.000636115   -0.000244672    0.007954625
Al       11.420119870    8.565089900    2.018785000   -0.000633305    0.000198272    0.007960477
Al       11.420119870   11.420119870    2.018785000   -0.000224551   -0.000090643    0.008152450
Al        1.427500000    1.427500000    0.000000000   -0.000041675   -0.000902978   -0.007106799
Al        1.427500000    4.282529970    0.000000000   -0.000058140    0.000516433   -0.006884739
Al        1.427500000    7.137559940    0.000000000   -0.000078989   -0.000006008   -0.008267732
Al        1.427500000    9.992589900    0.000000000   -0.000058785   -0.000523709   -0.006890465
Al        1.427500000   12.847619870    0.000000000   -0.000043609    0.000906219   -0.007099439
Al        4.282529970    1.427500000    0.000000000    0.000222177    0.000643519   -0.007766238
Al        4.282529970    4.282529970    0.000000000    0.000903188    0.000292651   -0.007988295
Al        4.282529970    7.137559940    0.000000000    0.000478749   -0.000001899   -0.008730742
Al        4.282529970    9.992589900    0.000000000    0.000900824   -0.000288726   -0.007994971
Al        4.282529970   12.847619870    0.000000000    0.000220067   -0.000646474   -0.007766931
Al        7.137559940    1.427500000    0.000000000    0.000574450    0.000421785   -0.008465882
Al        7.137559940    4.282529970    0.000000000   -0.000018566    0.000171361   -0.009035789
Al        7.137559940    7.137559940    0.000000000   -0.000097547    0.000000075   -0.009181035
Al        7.137559940    9.992589900    0.000000000   -0.000026929   -0.000175720   -0.009032529
Al        7.137559940   12.847619870    0.000000000    0.000576962   -0.000412727   -0.008454296
Al        9.992589900    1.427500000    0.000000000   -0.000517407    0.000453775   -0.008435618
Al        9.992589900    4.282529970    0.000000000    0.000098758    0.000202193   -0.009071481
Al        9.992589900    7.137559940    0.000000000    0.000165908   -0.000003675   -0.009236489
Al        9.992589900    9.992589900    0.000000000    0.000101410   -0.000202892   -0.009073753
Al        9.992589900   12.847619870    0.000000000   -0.000515001   -0.000453291   -0.008430905
Al       12.847619870    1.427500000    0.000000000   -0.000235148    0.000643158   -0.007751284
Al       12.847619870    4.282529970    0.000000000   -0.000917905    0.000315878   -0.008029912
Al       12.847619870    7.137559940    0.000000000   -0.000490389   -0.000002043   -0.008813966
Al       12.847619870    9.992589900    0.000000000   -0.000923341   -0.000316581   -0.008032004
Al       12.847619870   12.847619870    0.000000000   -0.000230409   -0.000644748   -0.007753359
