 CRYSTAL
 PRIMVEC
   14.275149902    0.000000000    0.000000000
    0.000000000   14.275149902    0.000000000
    0.000000000    0.000000000   25.093925130
 PRIMCOORD
         151           1
Al        7.618535603    7.616028703   11.328571158   -0.000242853   -0.000189178   -0.000409849
Al        2.845470918    2.844715647   10.447425261   -0.000040495   -0.000046934    0.000009072
Al        2.854478048    5.696032528   10.444753087    0.000287303   -0.000059046    0.000024585
Al        2.776623340    8.554932481   10.446124725   -0.000059696   -0.000116999   -0.000024494
Al        2.818204151   11.412398119   10.438476784   -0.000388902   -0.000037623   -0.000097102
Al        2.853567120   14.273131819   10.447228016    0.000039948   -0.000101279   -0.000044696
Al        5.696926515    2.852822220   10.444487858   -0.000060574    0.000299280    0.000034720
Al        5.690190463    5.688242812   10.469262660    0.000058206    0.000084253   -0.000109405
Al        5.442768421    8.702542775   10.435889957   -0.000413681    0.000673047    0.000534641
Al        5.630047854   11.486997577   10.426549585   -0.000507900    0.000724775    0.000213883
Al        5.714659106   14.295409321   10.435864320    0.000009086    0.000487306   -0.000013089
Al        8.555719956    2.774421404   10.445483057   -0.000113151   -0.000014927   -0.000009218
Al        8.704452891    5.440523426   10.435273966    0.000665995   -0.000440072    0.000543336
Al        9.472680581    9.470147623   11.246856804   -0.000693792   -0.000653166   -0.000972027
Al        8.415258386   11.688156808   10.428417784   -0.000331882    0.000449366    0.000878639
Al        8.570226896   14.349403803   10.443840054    0.000134505    0.000300108    0.000037589
Al       11.413120192    2.815983527   10.437752246   -0.000041103   -0.000372180   -0.000086382
Al       11.488616316    5.627762692   10.425923201    0.000713747   -0.000502245    0.000218134
Al       11.690347795    8.412805347   10.428272773    0.000463121   -0.000334034    0.000869078
Al       11.423017164   11.420609038   10.447073489   -0.000172405   -0.000147786    0.000201477
Al       11.428023811   14.257887991   10.440412244    0.000078492   -0.000268078    0.000013263
Al       14.273741341    2.851992789   10.446897497   -0.000101253    0.000040973   -0.000038745
Al       14.296903468    5.712851352   10.435661735    0.000468222    0.000021966   -0.000014822
Al       14.351514378    8.568254681   10.444146856    0.000291187    0.000143886    0.000025161
Al       14.260098196   11.426183081   10.440810872   -0.000288169    0.000098818    0.000005266
Al       14.279707674   14.278140559   10.445541477    0.000031019    0.000042773   -0.000044965
Al        1.425433916    1.424334374    8.355294490    0.000009274    0.000006944    0.000014904
Al        1.423272053    4.278505441    8.347761699    0.000165241   -0.000003737   -0.000043505
Al        1.440142637    7.128690607    8.340303195    0.000179829   -0.000061192   -0.000159656
Al        1.405457759    9.994816317    8.340742869   -0.000087594    0.000006859   -0.000192575
Al        1.423947352   12.845872472    8.348070034   -0.000160527   -0.000017949   -0.000105052
Al        4.279591140    1.422305215    8.347795506   -0.000013576    0.000167561   -0.000042742
Al        4.275726716    4.274831189    8.353176441    0.000076575    0.000075943   -0.000069056
Al        4.273536234    7.132578018    8.364302646    0.000140263    0.000178357    0.000118832
Al        4.236936321   10.018935183    8.307749794   -0.000049610    0.000269743   -0.000031701
Al        4.261836597   12.858712128    8.339994040   -0.000150145    0.000195927   -0.000160666
Al        7.129700067    1.438545990    8.340065307   -0.000057837    0.000203668   -0.000167024
Al        7.133431747    4.272133295    8.363845073    0.000184731    0.000140962    0.000133217
Al        7.156003383    7.154578647    8.508974980    0.000037074    0.000051984    0.000031375
Al        7.141813711    9.977382519    8.501171353    0.000144824    0.000232589    0.000951529
Al        7.099465465   12.880806782    8.299458943   -0.000106205    0.000197339    0.000227872
Al        9.995891744    1.403636423    8.340165085    0.000013073   -0.000085642   -0.000182851
Al       10.019857271    4.235149086    8.306800540    0.000270148   -0.000038543    0.000007724
Al        9.978701634    7.140127973    8.500889414    0.000241634    0.000163274    0.000965254
Al        9.968019394    9.966206704    8.468672481    0.000258282    0.000256024    0.000024553
Al        9.986690951   12.847302007    8.352786806   -0.000153662    0.000021776    0.000237112
Al       12.847018805    1.422158310    8.347559280   -0.000025416   -0.000154633   -0.000090516
Al       12.859675518    4.260083906    8.339327875    0.000190552   -0.000135229   -0.000144285
Al       12.882249144    7.097741079    8.298953667    0.000183443   -0.000103740    0.000249922
Al       12.849313921    9.984830130    8.352822635   -0.000003114   -0.000154549    0.000243671
Al       12.847765336   12.845800035    8.345571024   -0.000168591   -0.000146557   -0.000030816
Al        2.861653204    2.860982912    6.246554344    0.000073056    0.000058437   -0.000068684
Al        2.862119440    5.717050439    6.247018050    0.000107471    0.000064258   -0.000019814
Al        2.850569849    8.559469115    6.267114569    0.000133385    0.000080314   -0.000047425
Al        2.847692534   11.424953625    6.243487938    0.000006135    0.000034143   -0.000101855
Al        2.852189832   14.273024686    6.247825117   -0.000080265    0.000107971   -0.000116673
Al        5.717666386    2.861579297    6.246880537    0.000067482    0.000092269   -0.000017366
Al        5.724635322    5.724235028    6.293763153    0.000086428    0.000069540    0.000055925
Al        5.728501295    8.556993699    6.311721244    0.000185884    0.000150841    0.000352040
Al        5.724486022   11.393167902    6.267891030    0.000103162    0.000036009    0.000210834
Al        5.698268499   14.274916522    6.241088018   -0.000042425    0.000070684   -0.000013689
Al        8.560123292    2.849543800    6.266674179    0.000075018    0.000124494   -0.000046023
Al        8.557404700    5.727682728    6.311486400    0.000158314    0.000185725    0.000349986
Al        8.554535324    8.553706386    6.387643997    0.000044563    0.000032857    0.000721392
Al        8.560571048   11.388132560    6.302046258   -0.000083452   -0.000020040    0.000376722
Al        8.562992775   14.269179710    6.263935413   -0.000102828   -0.000043893    0.000022186
Al       11.425800684    2.846516384    6.242976295    0.000033659   -0.000007518   -0.000098318
Al       11.393696978    5.723442553    6.267512811    0.000044871    0.000105768    0.000216451
Al       11.389118130    8.559443721    6.301901657   -0.000022764   -0.000084020    0.000389100
Al       11.400670563   11.399300240    6.282418643   -0.000020641   -0.000009664    0.000122735
Al       11.408309881   14.262056739    6.243666589   -0.000127274   -0.000058228    0.000000196
Al       14.273947787    2.851214513    6.247601911    0.000089825   -0.000091547   -0.000121489
Al       14.275681909    5.697252744    6.240894835    0.000068303   -0.000037507   -0.000012285
Al       14.270348177    8.562037014    6.263949769   -0.000048767   -0.000109074    0.000023845
Al       14.263418786   11.407204290    6.243848598   -0.000068575   -0.000119963   -0.000009586
Al       14.265979571   14.264828810    6.244254432   -0.000104717   -0.000095740   -0.000060788
Al        1.426830146    1.426250926    4.107747569   -0.000007242   -0.000002791   -0.000044091
Al        1.425547415    4.290617492    4.112773889    0.000040814   -0.000004191   -0.000035559
Al        1.426357758    7.137291425    4.116912677    0.000010700   -0.000004294   -0.000046263
Al        1.425024460    9.988428970    4.116980600   -0.000026507   -0.000009739   -0.000047555
Al        1.427638758   12.835208935    4.112276283   -0.000061596   -0.000005191   -0.000041874
Al        4.291042838    1.425141889    4.112791974    0.000003150    0.000043573   -0.000030404
Al        4.295251255    4.295001944    4.118507352    0.000077459    0.000065380   -0.000018982
Al        4.290349645    7.144135899    4.128350595    0.000123514    0.000068912    0.000055857
Al        4.291720978    9.988152306    4.125029791    0.000118910    0.000023588    0.000040436
Al        4.282131063   12.843884127    4.112864568    0.000027348    0.000002845   -0.000016320
Al        7.137719927    1.425851349    4.116886950   -0.000007450    0.000012558   -0.000047487
Al        7.144356800    4.290035033    4.128266934    0.000072006    0.000114484    0.000057064
Al        7.139541574    7.139305787    4.152622925    0.000086752    0.000071759    0.000285213
Al        7.145213758    9.977408507    4.145880440    0.000088393   -0.000043695    0.000288696
Al        7.136287428   12.833852889    4.123652146    0.000004717   -0.000100731    0.000063990
Al        9.988932934    1.424489862    4.116878587   -0.000011865   -0.000033150   -0.000047652
Al        9.988441513    4.291399567    4.124823401    0.000022041    0.000101446    0.000040606
Al        9.977788634    7.144910325    4.145816613   -0.000052225    0.000077922    0.000295341
Al        9.984446364    9.983990303    4.148386983   -0.000027505   -0.000028835    0.000246904
Al        9.981289333   12.836178004    4.125857082   -0.000060132   -0.000101088    0.000095138
Al       12.835861657    1.426954917    4.112146376   -0.000016070   -0.000053818   -0.000034139
Al       12.844274949    4.281641689    4.112694706    0.000002043    0.000017848   -0.000013286
Al       12.834324930    7.135760958    4.123541438   -0.000099159    0.000009355    0.000067810
Al       12.836733435    9.980674296    4.125872878   -0.000095512   -0.000054616    0.000096034
Al       12.832473775   12.831743670    4.115456334   -0.000078729   -0.000074786    0.000027710
Al        0.000000000    0.000000000    2.018785000   -0.001037745   -0.001066977    0.007254537
Al        0.000000000    2.855029970    2.018785000   -0.001384113    0.001485573    0.008109660
Al        0.000000000    5.710059940    2.018785000   -0.000811287    0.000992030    0.008615206
Al        0.000000000    8.565089900    2.018785000   -0.001301873   -0.000409264    0.008326022
Al        0.000000000   11.420119870    2.018785000   -0.000611077   -0.000943058    0.008410998
Al        2.855029970    0.000000000    2.018785000    0.001503202   -0.001404035    0.008107120
Al        2.855029970    2.855029970    2.018785000    0.001192470    0.001176301    0.007362085
Al        2.855029970    5.710059940    2.018785000    0.000706739    0.000696096    0.008454222
Al        2.855029970    8.565089900    2.018785000    0.001469209    0.000161399    0.008293241
Al        2.855029970   11.420119870    2.018785000    0.000853079   -0.001224608    0.008594869
Al        5.710059940    0.000000000    2.018785000    0.001000700   -0.000826749    0.008620875
Al        5.710059940    2.855029970    2.018785000    0.000701957    0.000696026    0.008458120
Al        5.710059940    5.710059940    2.018785000    0.001551078    0.001545491    0.008710180
Al        5.710059940    8.565089900    2.018785000    0.001563943   -0.000415728    0.007740620
Al        5.710059940   11.420119870    2.018785000    0.000748893   -0.001105668    0.007822386
Al        8.565089900    0.000000000    2.018785000   -0.000400318   -0.001317546    0.008331315
Al        8.565089900    2.855029970    2.018785000    0.000165519    0.001457240    0.008291133
Al        8.565089900    5.710059940    2.018785000   -0.000414522    0.001561142    0.007741044
Al        8.565089900    8.565089900    2.018785000   -0.000198094   -0.000204076    0.008197353
Al        8.565089900   11.420119870    2.018785000    0.000076065   -0.001881711    0.007779815
Al       11.420119870    0.000000000    2.018785000   -0.000924083   -0.000631092    0.008412069
Al       11.420119870    2.855029970    2.018785000   -0.001212281    0.000838805    0.008591849
Al       11.420119870    5.710059940    2.018785000   -0.001092819    0.000739837    0.007809483
Al       11.420119870    8.565089900    2.018785000   -0.001867881    0.000068667    0.007777954
Al       11.420119870   11.420119870    2.018785000   -0.001698981   -0.001720581    0.008613248
Al        1.427500000    1.427500000    0.000000000   -0.000028165   -0.000029066   -0.007801273
Al        1.427500000    4.282529970    0.000000000    0.000827174    0.000004139   -0.006620606
Al        1.427500000    7.137559940    0.000000000   -0.000599388    0.000212336   -0.006955461
Al        1.427500000    9.992589900    0.000000000    0.000590026   -0.000238538   -0.006794717
Al        1.427500000   12.847619870    0.000000000   -0.000812214    0.000017996   -0.006665987
Al        4.282529970    1.427500000    0.000000000    0.000006962    0.000832325   -0.006621050
Al        4.282529970    4.282529970    0.000000000    0.000847637    0.000843359   -0.009861575
Al        4.282529970    7.137559940    0.000000000    0.001634771    0.000729169   -0.009319905
Al        4.282529970    9.992589900    0.000000000    0.001266835   -0.001067847   -0.010161143
Al        4.282529970   12.847619870    0.000000000    0.001533601   -0.001621779   -0.006031680
Al        7.137559940    1.427500000    0.000000000    0.000219918   -0.000596376   -0.006955432
Al        7.137559940    4.282529970    0.000000000    0.000736528    0.001634043   -0.009321568
Al        7.137559940    7.137559940    0.000000000    0.000093004    0.000089533   -0.009704014
Al        7.137559940    9.992589900    0.000000000   -0.000227970    0.000279558   -0.010513011
Al        7.137559940   12.847619870    0.000000000    0.000966605   -0.001156225   -0.009955045
Al        9.992589900    1.427500000    0.000000000   -0.000232670    0.000593481   -0.006799400
Al        9.992589900    4.282529970    0.000000000   -0.001058707    0.001260889   -0.010168201
Al        9.992589900    7.137559940    0.000000000    0.000281202   -0.000230284   -0.010510742
Al        9.992589900    9.992589900    0.000000000   -0.000181979   -0.000184613   -0.010142138
Al        9.992589900   12.847619870    0.000000000   -0.000732155   -0.001794569   -0.009045898
Al       12.847619870    1.427500000    0.000000000    0.000020037   -0.000806452   -0.006669459
Al       12.847619870    4.282529970    0.000000000   -0.001625216    0.001535950   -0.006041697
Al       12.847619870    7.137559940    0.000000000   -0.001153096    0.000956463   -0.009960268
Al       12.847619870    9.992589900    0.000000000   -0.001794683   -0.000737407   -0.009046502
Al       12.847619870   12.847619870    0.000000000   -0.000769181   -0.000772641   -0.009632808
