 CRYSTAL
 PRIMVEC
    7.347096396    0.000000000    0.000000000
   -2.449032132    4.241848082    0.000000000
    0.000000000    0.000000000    7.347096396
 PRIMCOORD
          11           1
C         0.047488275    0.189291458    0.000207230   -0.000801103   -0.000930019   -0.000013142
C        -1.286282545    2.380226219   -0.000572637    0.000531304   -0.000453621    0.000020522
C         2.485555427    0.204209497   -0.000022888    0.000229965    0.000210112    0.000003378
C         1.191032615    2.270829329    0.000664527    0.000760741    0.000994980   -0.000006450
C         4.892792779    0.181043998    0.000253612   -0.000034277   -0.000023196   -0.000001741
C         3.665943953    2.343539666    0.000250995   -0.000276190    0.000015974   -0.000001899
C        -1.185284833    3.759093882   -0.000281745   -0.000073100    0.000007186    0.000005795
C         2.418861096    1.601164584    0.000199536   -0.000006140    0.000172811    0.000002230
C         1.207631594    3.683799429    0.000281735    0.000425066    0.000352428   -0.000004557
C         4.901924283    1.611813086    0.000032063   -0.000249100   -0.000077872    0.000004945
C         3.700363121    3.774439685    0.000363534   -0.000507167   -0.000268782   -0.000009080
