 CRYSTAL
 PRIMVEC
    7.347096396    0.000000000    0.000000000
   -2.449032132    4.241848082    0.000000000
    0.000000000    0.000000000    7.347096396
 PRIMCOORD
          11           1
C        -0.049018155    1.495166502    0.000654072    0.000887800    0.000824989   -0.000043898
C        -1.264175175    2.169089919   -0.000981618    0.000088854   -0.000068916    0.000012353
C         2.446069123    0.074210770    0.000142861    0.000232648    0.000130827    0.000007182
C         1.196291383    2.152492504    0.001203551    0.000510274    0.000233871   -0.000018453
C         4.927484795    0.085181080    0.000638522   -0.000093052   -0.000120026    0.000003786
C         3.689705670    2.244689839    0.000900043   -0.000385608   -0.000328673   -0.000003564
C        -1.161419064    3.547652367   -0.001935839   -0.000533533    0.000401532    0.000069266
C         2.453650284    1.504938227    0.000917343    0.000144944    0.000108828   -0.000009486
C         1.232358659    3.583777335    0.000832281    0.000313736   -0.000067547   -0.000007286
C         4.860876772    1.482472650   -0.000127240   -0.000287696   -0.000179657    0.000011482
C         3.706736875    3.657999214    0.002193232   -0.000878366   -0.000935229   -0.000021382
