 CRYSTAL
 PRIMVEC
    7.347096396    0.000000000    0.000000000
   -2.449032132    4.241848082    0.000000000
    0.000000000    0.000000000    7.347096396
 PRIMCOORD
          11           1
C        -0.000434831    0.843827314   -0.000060386    0.000340953   -0.000239528   -0.000055840
C        -1.311617298    2.291721945   -0.000836054    0.000242291   -0.000299693   -0.000022754
C         2.518685758    0.106299877   -0.000571262    0.000527343    0.000052451    0.000092830
C         1.144555105    2.012583307    0.000485032   -0.000608087   -0.000291453   -0.000012704
C         4.864167984    0.142857771    0.000447922   -0.000308040    0.000194278   -0.000041042
C         3.689359807    2.406957523    0.000359410   -0.000388576    0.000278139   -0.000005355
C        -1.139247723    3.638228362   -0.001185671    0.000434762   -0.000524828    0.000050002
C         2.483219610    1.543239969   -0.000096230    0.000464536   -0.000423245    0.000069907
C         1.208798771    3.520753047    0.000239988    0.000282551    0.000147075    0.000015324
C         4.828005034    1.579698628    0.000098544   -0.000279046    0.000676138   -0.000024485
C         3.754693039    3.915875000    0.000758979   -0.000708688    0.000430666   -0.000065882
