SystemName		sivac.gga.vpsgga.sp.9l.sym.af-f

SystemLabel		lua_sivac


%block SCF.Mixers
  Pulay
  Linear
  Broyden
%endblock SCF.Mixers

%block SCF.Mixer.Pulay
  # Mixing method
  method pulay
  variant stable

  # Mixing options
  weight 0.0500
  weight.linear 0.0500
  history 3
%endblock

%block SCF.Mixer.Broyden
  # Mixing method
  method broyden

  # Mixing options
  weight 0.0500
  weight.linear 0.0500
  history 5
%endblock

%block SCF.Mixer.Linear
  # Mixing method
  method linear

  # Mixing options
  weight 0.1
%endblock


NumberOfAtoms		63
NumberOfSpecies	1
%block ChemicalSpeciesLabel
	1	14	Si
%endblock ChemicalSpeciesLabel

##### BASIS DEFINITION #########################################################

PAO.BasisType		split
PAO.BasisSize		DZP
PAO.EnergyShift	0.02 Ry
PAO.SplitNorm		0.60

#%block PAO.Basis
#	H	1
#	0	1
#	0.
#	0.75
#%endblock PAO.Basis

LatticeConstant 10.167669478 Bohr

%block LatticeVectors
 2.0 0.0 0.0
 0.0 2.0 0.0
 0.0 0.0 2.0
%endblock LatticeVectors

AtomicCoordinatesFormat	Ang
%block AtomicCoordinatesAndAtomicSpecies
           2.6473813879665129        2.6507361381349894        7.3359430039338605E-002             1  Si        1 
           2.9385176371900470        2.9401747523412332        5.2767133828646298                  1  Si        2
           2.6486665532276312        8.1496954096252754       -7.0628641615004373E-002             1  Si        3
           2.9365652580892889        7.8579840881724294        5.4840928902384016                  1  Si        4
           8.1473212331256502        2.6502135256878372       -7.0758999780339227E-002             1  Si        5
           7.8555030031814130        2.9410549130356789        5.4855782480672284                  1  Si        6
           8.1404356286554780        8.1520152919641706        6.5174378549786693E-002             1  Si        7
           7.8544140439573322        7.8559724731827245        5.2754291045466850                  1  Si        8
           1.8149891077603210E-002   1.9877380153981584E-002  -3.0620759432426799E-004             1  Si        9
           1.7458583739017975E-002   1.5603972589149445E-002   5.3740230265315097                  1  Si       10
           2.0184665088513798E-002   5.3947068818902677       -8.3365501199200078E-003             1  Si       11
           1.8176729847439121E-002   5.4010722558703730        5.3792963442458754                  1  Si       12
           5.3984457764825118        1.8059606236600391E-002  -3.4273029041189370E-003             1  Si       13
           5.3988671022455490        1.9516880854029462E-002   5.3796829478902852                  1  Si       14
           5.3982306896490506        5.4002748442349437       -6.4309684412477085E-004             1  Si       15
           2.7030671845928627       -2.1589622666110378E-002   2.7598451017266594                  1  Si       16
           2.7031163513914089        5.6360251540126617E-002   7.9989397677492651                  1  Si       17
           2.7758087564901581        5.4047366273181847        2.6872167695716866                  1  Si       18
           2.7759773686557567        5.3928470725248925        8.0759752523189867                  1  Si       19
           8.0916443426028941        5.5532520970420406E-002   2.7612655979132636                  1  Si       20 
           8.0922892192211702       -2.0044753481359000E-002   7.9979006534917421                  1  Si       21
           8.0187343997748464        5.3914377608620612        2.6842706515519463                  1  Si       22
           8.0196088887258288        5.4035862852243328        8.0745088210463738                  1  Si       23
          -2.1840931104891999E-002   2.7060508150010563        2.7609556805703641                  1  Si       24
           5.3872621878904528E-002   2.7016341090309157        7.9953026874228526                  1  Si       25
           4.4781538902270657E-002   8.0832147491694233        2.7490108396563491                  1  Si       26
          -2.1840577894157796E-002   8.0938206233433672        7.9991536572118971                  1  Si       27
           5.3999852967738260        2.7751906666833710        2.6855494843207688                  1  Si       28
           5.3909564169237196        2.7776739842095353        8.0771497540192509                  1  Si       29
           5.3904873599887511        8.0209079277507787        2.6866386350788125                  1  Si       30 
           5.3992811552547595        8.0191065768747940        8.0706586049041888                  1  Si       31
           4.0386851388926424        1.3337281031035464        1.4045001841666960                  1  Si       32
           4.0694169719370086        1.4428970585592169        6.6795988623466380                  1  Si       33
           4.0009862287818736        6.7944698675492017        1.2641246677664044                  1  Si       34
           4.4604207816237817        6.3296405975837224        6.6878739206005671                  1  Si       35
           9.4456682261577143        1.3506466346947266        1.3656275476578066                  1  Si       36
           9.3508148697734796        1.4413054284983187        6.6751951175377124                  1  Si       37
           9.4490890000000007        6.7471940000000004        1.3864989999999999                  1  Si       38
           9.3535137934702490        6.7279315176241905        6.6789631447781774                  1  Si       39
           1.3340727398855141        4.0427264386721129        1.4077439695237661                  1  Si       40 
           1.4409092370983676        4.0709426109093076        6.6791962438686561                  1  Si       41
           1.3459396356333222        9.4450846430173048        1.3662948733780105                  1  Si       42
           1.4417588072763985        9.3530126664115194        6.6794070484682244                  1  Si       43
           6.7902617061887680        4.0006433999480357        1.2642516609903152                  1  Si       44
           6.3300300341669686        4.4638720699541201        6.6922232888439241                  1  Si       45
           6.7541722587769142        9.4624429011289362        1.4069161787031716                  1  Si       46
           6.7260133162683458        9.3546193407207454        6.6789415989905452                  1  Si       47
           4.4627122765866343        4.4635819963320218        4.0707878653473291                  1  Si       48
           4.0012512668141307        4.0036868880563947        9.4990304323206836                  1  Si       49
           4.0682309195491175        9.3556729730890211        4.0829575864453211                  1  Si       50
           4.0387743252906594        9.4609314277922483        9.3525620144046933                  1  Si       51
           9.3539976806427010        4.0705334429894124        4.0833252044921338                  1  Si       52
           9.4606889404871666        4.0370680256649187        9.3506749721409363                  1  Si       53
           9.3508576705433892        9.3474233592662266        4.0758132754154355                  1  Si       54
           9.4459193479345913        9.4485232948558799        9.3953481866542532                  1  Si       55
           1.4453015847208588        1.4460759725180485        4.0775818567049269                  1  Si       56
           1.3503841814808886        1.3527283524119147        9.3952799232749715                  1  Si       57
           1.4383142634729307        6.7310299461282161        4.0772236287224857                  1  Si       58
           1.3363606521621472        6.7598480496181486        9.3525819369147669                  1  Si       59
           6.7270777310836074        1.4437597076006601        4.0805221018248092                  1  Si       60 
           6.7582359530333225        1.3370042064298997        9.3529588815962210                  1  Si       61
           6.3303393187024906        6.3322382377382906        4.0690177054317989                  1  Si       62
           6.7911286163913065        6.7953619078369298        9.4923440387652800                  1  Si       63
 %endblock AtomicCoordinatesAndAtomicSpecies                    
                                                               
%block kgrid_Monkhorst_Pack                                    
  1  0  0  0.0                                                 
  0  1  0  0.0                                                 
  0  0  1  0.0                                                 
%endblock kgrid_Monkhorst_Pack                                 
                                                               
XC.functional		GGA                                    
XC.authors		PBE                                    
                                                               
SpinPolarized		.false.                                
MeshCutoff		100. Ry                                
                                                               
#%block DM.InitSpin                                             
#	1	+
#	2	-
#%endblock DM.InitSpin                                          
                                                               
SolutionMethod	diagon                                         
ElectronicTemperature	5 meV                                  
                                                               
                                                               
WriteForces		.true.                                 
WriteMullikenPop	0                                      
 # Default value: 0                                            
 #  * 0 = None                                                 
 #  * 1 = atomic and orbital charges                           
 #  * 2 = 1 + atomic overlap pop                               
 #  * 3 = 2 + orbital overlap pop                              
                                                               
WriteCoorXmol		.true.                                 
WriteMDXmol		.true.                                 
WriteMDhistory	.true.                                         
                                                               
## fix one atom (needed for FIRE)
%block GeometryConstraints                                     
 position 38
%endblock GeometryConstraints                                  
                                                               
# Enable Lua                                                   
#Lua.Script siesta.lua
Lua.Script artn.lua

## set FIRE minimization
#MD.TypeOfRun         FIRE
MD.TypeOfRun         Lua

## set timestep
#MD.FIRE.TimeStep 1.8 fs

## total number of steps
#MD.Steps  50

## maximal displacement
#MD.MaxDispl 8.0 Bohr

## force convergence
#MD.MaxForceTol 1e-1 ev/Ang


