 CRYSTAL
 PRIMVEC
    6.350126531    0.000000000    0.000000000
    0.000000000    6.350126531    0.000000000
    0.000000000    0.000000000    6.350126531
 PRIMCOORD
           4           1
N        -0.000735014    0.000176846    2.315873266   -0.000143444    0.000066671   -0.000454243
H         0.817547663    0.474710302    2.705101970   -0.000474598   -0.000580912    0.000166658
H        -0.818707240    0.473595525    2.706895565    0.000367322   -0.000229841    0.000097775
H        -0.000873127   -0.943314920    2.710912539    0.000250720    0.000744082    0.000189810
