 CRYSTAL
 PRIMVEC
    6.350126531    0.000000000    0.000000000
    0.000000000    6.350126531    0.000000000
    0.000000000    0.000000000    6.350126531
 PRIMCOORD
           4           1
N         0.000119831   -0.001960608    2.901239129    0.000084507   -0.000166056    0.000852191
H         0.820026520    0.471755226    2.514643062   -0.000802502   -0.000169089   -0.000274541
H        -0.818101946    0.472622245    2.512014613    0.000867944   -0.000379765   -0.000315795
H         0.000983576   -0.945042634    2.505501584   -0.000149949    0.000714909   -0.000261855
