         255
Lattice=" 16.138199 .000000 .000000 .000000 16.138199 .000000 .000000 .000000 16.138199 " properties=species:S:1:pos:R:3:force:R:3:id:I:1 energy:-870.679929227
 1   3.962280871 1.945550272 1.936925049    -.000492057 -.000602489 -.004850319    8
 1   1.944002779 3.959067532 1.937197167    .000055886 -.000648315 -.005006587    19
 1   1.943155240 1.945503067 3.956388912    -.000400152 .000119933 -.004305670    66
 1   3.962510106 3.963018974 3.959143681    -.001052145 .000104215 -.003318627    85
 1   3.972514199 -.076834507 -.075982693    .001571076 -.002713596 -.003553214    5
 1   7.999740576 1.945008412 1.938324912    -.001966295 .001375926 .001305909    12
 1   5.982266824 3.963133189 1.937740106    -.000836739 .000456220 -.004642475    23
 1   10.020805343 3.952259347 1.936721019    -.000865289 -.000730221 -.003141926    27
 1   5.978020811 1.950294793 3.959030357    -.003608532 .002598742 -.001246814    70
 1   10.018757798 1.958881277 3.969555864    -.001317904 .005303343 .003399392    74
 1   7.997541353 3.965670614 3.956581261    -.002583536 .002496647 -.002714968    89
 1   16.058118644 1.936961642 1.928692506    -.000825891 -.000554378 -.004854933    4
 1   16.068266217 3.958399593 3.956372664    .000636857 -.000862183 -.003947074    81
 1   12.037431682 1.922793268 1.921337947    -.000325957 .000497469 .000685635    16
 1   14.047370449 3.958970596 1.932913396    -.000536745 .000191162 -.004765802    31
 1   14.052635760 1.945082665 3.950758923    .001190146 .002166273 -.001590977    78
 1   12.036887276 3.959567238 3.947312202    .000076072 .002363012 -.002313710    93
 1   12.040426935 -.055480113 3.982778530    .001766658 .002983361 .004867613    77
 1   12.032423227 3.964875892 -.071015544    -.001798852 -.001343817 -.002182176    29
 1   3.966220503 5.981151064 1.938657251    .000689530 -.000074234 -.005154815    24
 1   1.949998086 7.998080611 1.938623482    .000508161 -.001049092 -.003225593    35
 1   3.967415274 10.021029347 1.935080583    .000309124 -.000149050 -.005530197    40
 1   1.948994312 5.977634422 3.959247477    .001420172 -.002220807 -.002957453    82
 1   1.953430904 10.015573568 3.958169335    .002341867 -.002238215 -.001713119    98
 1   3.966464138 7.997917287 3.957216071    .000853757 -.001592542 -.004408065    101
 1   8.001237503 5.984083636 1.934831585    .000702392 .000558739 -.005122154    28
 1   5.987573655 8.005403110 1.932938099    .001041764 .001126117 -.005705992    39
 1   10.010840265 8.020646817 1.925942687    .001286697 .000487488 .000960475    43
 1   8.009379127 10.027705649 1.928221026    -.000008189 -.000451022 .002518541    44
 1   5.980890948 5.981159237 3.957246672    -.001254146 .000113076 -.004763405    86
 1   10.012828851 5.979729290 3.948514018    -.000924001 -.000840850 -.003050176    90
 1   5.979596425 10.015270976 3.951737503    -.002280841 -.002442717 -.001425894    102
 1   7.994615027 7.997104571 3.952303498    -.002230056 -.003009131 -.000829514    105
 1   10.007355049 9.999410187 3.987113357    -.000889232 -.004380300 .003654332    106
 1   10.017108893 5.982356062 -.068881715    .001164158 .001982732 -.002364771    26
 1   16.069483150 5.977664698 1.938246885    .000083056 -.000293442 -.003639167    20
 1   16.071491408 10.013751688 1.944278993    -.000156770 -.001666917 .001022071    36
 1   16.075633747 7.992558433 3.961230388    .002921232 -.003783894 -.000000636    97
 1   12.030278797 5.992395923 1.939337899    -.000248279 -.000204970 -.003087322    32
 1   14.055236064 7.995139256 1.945715363    .000182697 .000266003 .000248983    47
 1   12.034096953 9.980100226 1.990464447    .001105245 .002603867 .002873527    48
 1   14.055126162 5.972840995 3.958408872    .000675942 -.001642101 -.001943060    94
 1   12.032665223 7.979965608 3.976787205    .000824990 -.002742720 -.000666174    109
 1   14.063514400 10.004824794 3.976121243    .003232875 -.004156943 .002395405    110
 1   14.043785231 5.991747400 16.064084918    -.001159084 .001367977 -.002724192    30
 1   12.021129146 8.026333886 -.080829229    .001718443 .002112146 .000892868    45
 1   1.940269263 16.064791780 1.931671037    -.000355650 -.001496817 -.004742666    3
 1   3.958983367 16.071625524 3.956531145    -.002049432 .001031515 -.002884079    69
 1   1.934496804 12.039924457 1.937737204    .000328058 -.001295015 -.002439810    51
 1   3.974019376 14.049949579 1.936572278    .000909522 -.000807059 -.003516975    56
 1   1.944554181 14.056720112 3.948185075    .001434269 -.000264911 -.003227608    114
 1   3.965339748 12.034713506 3.947246609    -.001726325 -.001520312 -.002129609    117
 1   1.944384165 14.049628385 16.065441577    -.001784966 -.002143966 -.001007795    50
 1   3.963727379 12.036523981 -.069250430    .001177741 .000360499 -.003509939    53
 1   5.982886994 16.069864726 1.938954551    -.001195800 .000201810 .000474567    7
 1   10.018300080 16.093726487 1.977560304    -.000892007 .002154763 .009774189    11
 1   7.990969969 -.060115311 3.970165706    -.004630754 .003449169 .004624408    73
 1   6.003784433 12.031906199 1.923910684    -.000849861 -.000636317 .000632624    55
 1   10.000424493 12.014536820 2.015769682    .001428974 .000476807 .008190608    59
 1   7.971826780 14.050085670 1.979449458    -.001529338 .000406807 .009025259    60
 1   5.967521852 14.052940649 3.970053453    -.005022142 -.000292831 .002997028    118
 1   7.981927349 12.028800287 3.984529755    -.003198565 -.003304208 .004101674    121
 1   10.008917974 14.059288288 3.977011943    -.001653787 .000131889 .005685532    122
 1   6.009399105 14.039578697 -.084832979    .003328135 -.000484110 .000952382    54
 1   16.066588755 16.070497508 3.951550631    .001890729 .000871250 -.001933919    65
 1   14.037281936 16.053083157 1.922942867    -.000175721 .000232350 .002909062    15
 1   16.042837548 14.054763355 1.921337399    -.001003741 -.001687641 .001204808    52
 1   -.053596844 12.037129402 3.975447839    .002998252 -.002278796 -.000125132    113
 1   14.083944601 12.031435222 1.987022245    -.001913333 -.001272773 .003843001    63
 1   12.050329158 14.062640867 2.012439221    -.000013672 -.000421563 .009873570    64
 1   12.041932606 12.025047220 3.978193648    .002108457 -.003272315 .007557254    125
 1   14.066030026 14.058911372 3.985256131    .003881279 -.000459035 .004737341    126
 1   3.959559902 1.948716622 5.982179981    -.002357588 .001545889 -.000336162    72
 1   1.946175136 3.961001116 5.982681669    .000103971 -.001106267 -.000374360    83
 1   1.942770234 1.945186984 8.009517722    .000236879 .000603675 .003422791    130
 1   3.961844582 1.945991557 10.028163011    .000236548 -.000652730 .004308573    136
 1   1.943748600 3.958833632 10.028245284    .000671211 .000186105 .004673252    147
 1   3.962089840 3.963058345 8.005639253    -.000643697 .000304236 .002655170    149
 1   7.994867428 1.956394719 5.981184544    -.003840438 .004776641 .000497523    76
 1   5.978817937 3.965543191 5.981711103    -.002512898 .002051475 -.000633172    87
 1   10.015697489 3.973302280 5.980811385    -.001655998 .004751321 .000203450    91
 1   5.976935196 1.951379112 8.004036547    -.003101834 .002536593 .001407200    134
 1   10.017809643 1.962356734 7.993402904    -.001698771 .003184752 -.002299228    138
 1   7.997379996 1.948007205 10.024712356    -.000672698 .000051942 -.000910478    140
 1   5.981119437 3.964024790 10.027471072    -.000114948 .000467875 .003915108    151
 1   7.996468129 3.967012153 8.006452611    -.002429740 .002374526 .001918341    153
 1   10.019817314 3.954304713 10.027967358    -.001409017 -.000580096 .001964232    155
 1   10.013417097 -.059832309 5.982936023    -.002153226 .003286129 -.000318652    75
 1   16.068482768 1.946530545 5.983306742    .001469426 .001034949 -.000358301    68
 1   16.057023999 1.936633537 10.036762798    .000380373 .000629455 .003707054    132
 1   16.067914242 3.958452743 8.009147732    .000973067 -.000046771 .002934251    145
 1   12.039297970 1.963155851 5.982547072    .000711681 .004636262 -.000014990    80
 1   14.055179127 3.958467141 5.982319528    .001135344 .000832468 -.000542180    95
 1   14.051766530 1.945667633 8.015198109    .001641303 .002791109 .000688679    142
 1   12.036118978 1.924762141 10.042366399    -.000650187 .000481023 -.001115897    144
 1   12.036444382 3.962281100 8.016313839    -.000260571 .000808009 .001696770    157
 1   14.046435051 3.961047842 10.032065288    -.000190804 -.000395989 .003557449    159
 1   14.060445912 -.058150512 5.983139249    .003897467 .002486350 .000426390    79
 1   12.039338960 -.054897819 7.982091174    .001811535 .003090974 -.003660946    141
 1   3.964204724 5.979395025 5.982044859    .000435452 -.001059672 -.000683392    88
 1   1.952863755 7.995087166 5.981501245    .003368657 -.003200422 -.000311496    99
 1   3.966143039 10.014269551 5.980915219    -.000056382 -.002451030 -.000347030    104
 1   1.949379610 5.977139837 8.005225845    .001684713 -.001736127 .002309996    146
 1   3.966348411 5.980893861 10.026846534    .000672080 .000224730 .004752736    152
 1   1.954922149 10.014536219 8.004759687    .001984022 -.002319782 .001709598    162
 1   1.951576582 7.996947477 10.026031705    .000124529 -.000537413 .002835570    163
 1   3.966872489 7.997416292 8.006497443    .000764319 -.001650684 .003049275    165
 1   3.968137189 10.020047345 10.029952450    .000002623 -.000465293 .004082170    168
 1   7.994673392 5.979446363 5.980518694    -.003121475 -.000494371 -.000177909    92
 1   5.978362206 7.995723483 5.980548052    -.001879752 -.002320902 -.000051171    103
 1   10.008019378 7.978129058 5.979582831    -.001317012 -.005612531 .001195255    107
 1   7.983499610 10.004982415 5.979608991    -.002942208 -.004603594 .001385918    108
 1   5.980223280 5.981080051 8.006415215    -.001114917 .000083066 .003446699    150
 1   10.011438330 5.979345399 8.012989496    -.000558749 -.000309758 .003038530    154
 1   7.999729291 5.983791934 10.030267888    .000935286 .000929357 .003652097    156
 1   5.978569697 10.013743601 8.009541217    -.002360494 -.002305409 .001795173    166
 1   5.986838801 8.004410458 10.032285800    .000664256 .000758187 .004509217    167
 1   7.992504078 7.995131400 8.008361639    -.001454836 -.002130775 .002112646    169
 1   10.004012003 9.995157979 7.974164187    .000837785 -.002139954 -.002589180    170
 1   10.007364152 8.017842390 10.036811351    .002829018 .001228893 -.000725130    171
 1   8.005486261 10.023910696 10.034611413    .001661438 .000575492 -.002680926    172
 1   16.072735528 5.973915629 5.981667237    .002194002 -.003238486 -.000100383    84
 1   -.055781993 10.011241980 5.981143306    .004360193 -.003989928 .000717180    100
 1   16.070239049 5.977471775 10.026423078    -.000200894 .000174790 .003069379    148
 1   16.077101778 7.990963862 8.001032190    .002456539 -.002948682 .000891967    161
 1   16.074297756 10.010615094 10.018328377    -.001784176 -.000149991 -.000148688    164
 1   12.034515915 5.961564982 5.979490272    .000314363 .000712007 .002002030    96
 1   14.058904560 7.984350714 5.980294144    .002578141 -.004586586 .001068587    111
 1   12.037147666 10.005219427 5.982039785    .001598158 -.006845164 -.000483103    112
 1   14.055096800 5.972896288 8.004033722    .000742231 -.001229817 .002407303    158
 1   12.028847902 5.993710033 10.025234585    .000237595 -.001393756 .001731930    160
 1   12.031546858 7.976060586 7.983176409    .001412151 .000130617 .003043394    173
 1   14.065081023 10.000878968 7.986086100    .001867700 -.001985852 -.000859106    174
 1   14.056449045 7.992292393 10.016688960    -.000842677 .001858573 .000807974    175
 1   12.032787612 9.972951169 9.968584219    .000751497 .005615845 -.000278360    176
 1   1.944156825 16.072041358 5.982809796    .000792822 .001924039 -.000377081    67
 1   1.940968834 16.063828659 10.033539560    -.000229105 -.000933306 .003513884    131
 1   3.958845412 16.071745382 8.007317639    -.001546652 .000892153 .002605986    133
 1   1.963316043 12.036464744 5.981067586    .000984629 -.001792266 .000902081    115
 1   3.951330218 14.055301160 5.980912699    -.003586007 .000259093 .000579595    120
 1   1.945859450 14.056162459 8.016515104    .000853871 -.000462383 .002648632    178
 1   1.935953896 12.038807348 10.026787307    .000652651 -.001634699 .001553283    179
 1   3.965232208 12.033519226 8.015338972    -.000918607 -.001109946 .001968842    181
 1   3.975514441 14.048894015 10.027905877    -.000039552 -.000479167 .002474563    184
 1   -.053695526 14.058990379 5.982671162    .006334872 .000230575 .000335006    116
 1   5.971343365 -.063310743 5.980818603    -.005109987 .002585120 .000828826    71
 1   5.981115260 16.071343603 10.024082862    .000130773 -.001017833 -.000078198    135
 1   7.988266483 -.058581912 7.991656013    -.003345561 .002724255 -.001973603    137
 1   10.014647459 16.096762599 9.982198579    .000969961 -.000124997 -.006749535    139
 1   5.961784704 12.031239391 5.980033426    -.004108407 -.002294334 .000898966    119
 1   10.013908374 12.032651900 5.982243948    -.002390244 -.002599569 -.000028282    123
 1   7.988491993 14.056949433 5.981579228    -.004413624 .000162927 .000167740    124
 1   5.964826612 14.052255177 7.990907122    -.002480934 .000032582 -.001035424    182
 1   6.002708192 12.029497396 10.039609702    -.000645251 .000181043 -.000986877    183
 1   7.978661826 12.026266530 7.976291872    -.001998771 -.002352848 -.001526046    185
 1   10.005919117 14.057875474 7.987608492    -.000889845 .001220415 -.005649348    186
 1   9.995367539 12.009448526 9.944722892    .003471737 .002701153 -.007210846    187
 1   7.966221045 14.049643168 9.980104564    .001720797 -.000194370 -.005995148    188
 1   16.066313943 16.069790357 8.014781430    .002633138 .001487415 .001080068    129
 1   14.035298782 16.052098925 10.041389941    .001008870 .001129614 -.004011608    143
 1   -.050837813 12.035717390 7.987926094    .000969186 -.002430739 .001490829    177
 1   16.042521217 14.053081483 10.043065753    -.000041970 -.001383791 -.001857850    180
 1   14.060539773 12.030384757 5.983376918    .005983457 -.003035770 -.000713803    127
 1   12.034141905 14.051815624 5.983905862    .001241185 .001411844 -.000505405    128
 1   12.040303367 12.021406769 7.986778469    .002719671 -.001952333 -.007996439    189
 1   14.066376829 14.057739109 7.980149689    .003232644 -.000398958 -.004609971    190
 1   14.085397667 12.026774412 9.973107015    -.003111411 .001269828 -.001558370    191
 1   12.047830200 14.060284667 9.948053313    .000665968 .000391052 -.008144116    192
 1   1.936838364 1.935725789 16.058765463    -.000245338 -.001921184 -.003479514    2
 1   3.964783473 3.960645028 16.060516247    .000923972 -.000622871 -.003598422    21
 1   1.936717067 1.935323662 12.044018518    .000286077 -.001229315 .003215153    194
 1   3.968694193 1.936156838 14.052023706    .001422125 -.002673037 -.000466875    200
 1   1.938977281 3.955009919 14.051683222    -.000400381 -.000660217 .000136777    211
 1   3.964497021 3.960793900 12.043749436    .001392501 -.000499490 .003518376    213
 1   1.942139687 16.062305205 14.050675084    -.000914837 -.003275481 .000074955    195
 1   3.973584593 -.076869274 12.041099659    .000671700 -.002789277 .002356036    197
 1   5.988735065 1.939914434 16.057308394    .001452132 -.002173104 -.002311456    6
 1   10.029013624 1.918557056 16.051663574    -.000773709 -.003224969 .001618620    10
 1   8.006699040 3.954688046 16.063255535    .000953629 -.001535844 -.003073814    25
 1   5.987869190 1.941294434 12.046607211    .002207962 -.003009063 .000898151    198
 1   10.027412825 1.919782997 12.049443888    -.000296385 -.003075990 -.001998679    202
 1   8.026786653 1.922017198 14.051519855    .002169953 -.005009370 -.000685803    204
 1   5.990779452 3.957675211 14.052643600    .002323081 -.001229469 -.000315642    215
 1   8.005970058 3.955535793 12.041200160    .000820439 -.001142860 .002020413    217
 1   10.017180167 3.966700450 14.051928285    .000126911 -.002543386 -.000391441    219
 1   6.007617926 16.041179410 14.051604082    .004341833 -.002849448 -.000919690    199
 1   16.057566294 3.956212456 16.059460425    -.001571037 -.000524509 -.003529699    17
 1   14.028557538 1.920907404 16.048900537    -.003056965 -.003227774 -.002265141    14
 1   16.039625821 1.920450911 14.050434323    -.002858087 -.002749700 -.000034031    196
 1   16.057226026 3.956919443 12.043520647    -.001137494 -.000570337 .003236256    209
 1   14.027293972 1.921570033 12.052294387    -.002309873 -.002823634 .001365260    206
 1   12.023015548 1.947426922 14.050095340    -.002349665 -.004422042 -.000247367    208
 1   12.031422811 3.966434858 12.035830655    -.001617956 -.001534819 .001352831    221
 1   14.045438513 3.964374001 14.051261846    -.003115534 -.001231778 -.000110892    223
 1   1.947472448 5.979744113 16.060702163    -.000600970 .000700368 -.003193992    18
 1   1.938250697 10.024414332 16.063992800    -.002061552 -.000182516 -.002197775    34
 1   3.971006765 8.007290473 16.062092045    .000570131 .001605784 -.003883541    37
 1   1.948120461 5.979531933 12.043416023    -.000919290 .001187527 .003039584    210
 1   3.971820560 5.986739794 14.052547151    .000917294 .000948611 .000119409    216
 1   1.939014080 10.023544508 12.039436953    -.001579457 -.000276570 .001508601    226
 1   1.944324607 8.006617549 14.052405578    -.002417373 .001967759 -.000486224    227
 1   3.971366686 8.007113446 12.042940504    .000708959 .001369671 .003404468    229
 1   3.964792971 10.020108962 14.052644166    .001254914 .002921204 -.000357345    232
 1   16.059647985 5.985857957 14.052120934    -.002170199 .001854600 -.000507831    212
 1   5.989729338 5.987317151 16.061939976    .002146404 .001220668 -.003855373    22
 1   6.004674375 10.036319486 16.053527811    .004016401 .003028140 -.003406371    38
 1   8.017997102 8.024212839 16.053542226    .002936529 .002942676 -.002653003    41
 1   10.040226281 10.101679754 16.013955197    .001206234 -.000545841 .006694518    42
 1   5.989347803 5.987385883 12.043502957    .002055865 .000922416 .003170605    214
 1   10.015873154 5.983082667 12.035530271    .001274069 .001443947 .001021098    218
 1   8.000918507 5.982944828 14.053155585    .003530481 .001700848 -.000501364    220
 1   6.004421570 10.035363855 12.051882651    .003594987 .002724766 .000968118    230
 1   6.005184912 8.023443277 14.053411260    .003190567 .003150027 -.000867081    231
 1   8.016542771 8.023019836 12.051935660    .002964030 .002773049 .000526985    233
 1   10.037507479 10.097775940 12.085722552    .001964277 .000955301 -.005722123    234
 1   10.022687460 7.996994438 14.052568475    .003307545 .004529604 -.001051530    235
 1   8.066337437 10.084364473 14.052024241    .007609513 .007448148 -.000742665    236
 1   16.066360442 8.001668433 16.059434463    -.003120811 .002293375 -.000797111    33
 1   14.047833464 10.015563116 16.067304354    -.004046792 .005037444 .000614152    46
 1   16.067769080 8.000197210 12.043876702    -.003928758 .003329997 -.000275178    225
 1   16.046511719 10.038011953 14.050755015    -.005104091 .002187235 -.000113555    228
 1   14.043481943 5.992661507 12.039620866    -.000840190 .000428035 .001534950    222
 1   12.032570534 5.984267626 14.052116636    -.000673466 .001558952 -.000494275    224
 1   12.020118783 8.025445963 12.044868352    .001868052 .001527776 -.001459269    237
 1   14.049074646 10.012128719 12.031312043    -.005195508 .006766990 .001382952    238
 1   14.026859805 8.021788911 14.051444908    -.002333555 .004246480 -.000637701    239
 1   11.986529526 10.099968416 14.048797837    -.003210895 .005344703 .000978520    240
 1   1.945716970 14.048790260 12.036353215    -.002165092 -.002048754 .000800462    242
 1   1.946723863 12.034253889 14.051074892    -.003204643 -.000979418 -.000149372    243
 1   3.964616059 12.035535707 12.035028835    .000926735 .000386738 .002228324    245
 1   3.963803935 14.051288951 14.051674005    .001665459 -.002552030 -.000510554    248
 1   -.075067006 14.036286242 14.049158939    -.002062640 -.001422629 .000348666    244
 1   8.010314334 16.056351415 16.057873980    .001657053 -.001331788 .005536529    9
 1   8.082037922 12.055101722 16.015167247    .003811773 .002401418 .007354356    57
 1   9.996593860 14.066165948 .088265087    -.001311249 .002628432 .004928371    58
 1   8.007619982 16.058138655 12.041485616    .003393876 -.002588428 -.004027531    201
 1   10.067211561 15.967328742 14.048484151    .002000960 -.000558337 .000967921    203
 1   6.009229356 14.038834399 12.049033140    .003221844 -.000374465 -.001909951    246
 1   5.978338334 12.041568496 14.052225413    .006995369 .002041547 -.001060002    247
 1   8.081008804 12.053027742 12.085652765    .003548554 .002637252 -.007241533    249
 1   9.991707187 14.066639526 11.866113769    .000730936 .001816655 -.001935465    250
 1   11.034043958 13.026539579 14.044262662    -.001660194 .005346579 .002295625    251
 1   8.095140254 13.994947316 14.049029142    .001870583 -.000265410 .000956983    252
 1   16.037511769 16.043315415 16.047336886    -.002356425 -.001746031 -.001343041    1
 1   12.008694002 15.980819005 16.012392203    -.002005787 -.002972803 .006889013    13
 1   16.038592793 12.043326459 16.054093328    -.002057333 -.001536421 .001890971    49
 1   12.063789345 11.994680477 .098075570    -.004087005 .006426510 .000959392    61
 1   13.957752501 14.018577067 16.007102401    .001088219 .000645137 .007361531    62
 1   16.036582500 16.042047575 12.053388144    -.001177732 -.000650234 .000680347    193
 1   12.005852215 15.979996719 12.085408356    -.000515628 -.002150673 -.005771585    205
 1   13.977029178 15.995681422 14.048516582    -.006734966 -.006568696 .000306991    207
 1   16.038582293 12.041735751 12.045988976    -.001305672 -.001250703 -.001605358    241
 1   12.062460117 11.988273547 11.856309274    -.004248344 .008539662 .001427103    253
 1   13.953462934 14.015733875 12.091447582    .003642282 .001981312 -.006919921    254
 1   13.958672616 12.065726499 14.048332669    -.003037624 .007902399 .000642194    255
