run_id:  1018
total_energy:   -3030.223091605058
  1000 atoms
  1 atom types
  0.0   27.664  xlo xhi
  0.0   27.664  ylo yhi
  0.0   27.664  zlo zhi

 Atoms

    0      1       0.02491910       18.75184569        6.77108495
    1      1      14.72959003       18.60764164       19.58678244
    2      1      19.84601757       15.24239195       15.87152698
    3      1      17.39916849        8.35479188       17.16798229
    4      1      12.87652388       12.81556416       13.33343326
    5      1       8.84072310       16.66726845        0.70507516
    6      1      13.88521338       23.99249707       26.96831551
    7      1      24.73051804       22.88169176       12.53193920
    8      1       0.60313623       26.02712666        6.20469744
    9      1      26.72721465       27.47148650       27.03791123
   10      1      26.47858647       23.85796746       27.26756097
   11      1      24.72767027       12.82936757       12.65242017
   12      1      12.02092531       16.23977250       11.51307581
   13      1       8.77660812        2.82400490       23.39166421
   14      1      22.31269365       12.22497516       22.83923835
   15      1      16.02064041       21.61351667        8.01012176
   16      1      22.70986391       17.41102658        5.23583514
   17      1       5.63837126        9.38708365       26.31046577
   18      1      25.00456911       10.29822942        5.07855202
   19      1       8.63921296       12.93965692        1.24144966
   20      1      25.62491441       18.07334295        1.80227063
   21      1       2.95053741       23.64022445        7.21686175
   22      1       4.98654763        2.30153221       17.97761008
   23      1      10.42305659       14.37517531       23.83333097
   24      1       0.40717761       14.88712429       19.05684595
   25      1      27.42637421        9.47745751       21.20232108
   26      1      12.90928856       18.21883539        3.57510283
   27      1      22.32825602       19.10304762        9.30633887
   28      1      17.71380144        3.25239319       15.57726557
   29      1      27.25229439       22.37707983        5.69375075
   30      1       4.80845980       21.73560103       14.25091458
   31      1      16.73447105       18.84839475       22.83828771
   32      1      16.93196850        2.94974411        3.36607212
   33      1       9.80104141       16.63358348       12.26132272
   34      1       8.21983721        6.07581519       12.54451945
   35      1      15.71754026       27.20665483        3.59227224
   36      1      10.63545201        6.58677394       20.12105993
   37      1       7.08765564       26.91095250       23.01174471
   38      1      21.88161939        2.76241199       18.09961631
   39      1      10.71787323        0.52749276        1.29365489
   40      1      10.80700985        7.14862786       27.66249606
   41      1      10.61871357       25.33776946        8.64232062
   42      1       4.49260498        0.64785492       11.51763961
   43      1       8.99313696       18.74565234       23.10291821
   44      1       1.36630308       13.16463056       26.41394720
   45      1      23.73396272       11.00143758       19.50135002
   46      1      14.36022802        7.66241495       14.48752016
   47      1       6.61355402        4.98866817       25.70612551
   48      1      15.02153490       20.38868256       25.89441791
   49      1       9.75380733        4.82823251        8.97788270
   50      1       1.40377431       18.54397325        1.05338853
   51      1       7.35471426        2.38849250        1.29077356
   52      1      24.56797146       19.94718973       22.72133151
   53      1       0.17508072       21.45980079       13.44534189
   54      1       6.87874060       21.89709902       11.05886858
   55      1       4.68042864       24.45935680       19.56429910
   56      1       1.88626327       18.85892254        3.33796661
   57      1       5.74363878       11.75836947        9.28690309
   58      1      27.17866169       11.73798711        7.35898475
   59      1      23.34326962        4.41646258        0.21494350
   60      1       2.39209179        3.04440386       15.26430084
   61      1      18.81040550        0.73097498       23.31988366
   62      1       8.10971401       11.70699681        9.27445442
   63      1       5.43044514       27.55868368       17.39477349
   64      1      20.50629692       21.78836272       21.57835697
   65      1       7.06572488        5.11375437        3.62153883
   66      1      15.99441435       13.21725822       15.96872030
   67      1      24.45087550        7.22696912       23.55748380
   68      1       0.20242779       12.27986802       24.60912694
   69      1       7.16733028        2.97699450       18.44933006
   70      1      10.42395921       17.35545237       14.58287025
   71      1      13.74714474        9.70922651       17.36697180
   72      1      13.31727679       21.12002686        1.52499194
   73      1      24.86026927        3.53119719       14.78177094
   74      1      26.35155844        1.84209042       15.78921390
   75      1       2.67120096       10.67912908       10.62982553
   76      1       2.59036830       23.55031635       11.19833246
   77      1       7.73648271       19.95077133       12.13655336
   78      1       3.85561118       16.85100742        7.77307899
   79      1      23.71805666       26.58682504       16.62062433
   80      1       6.98603679        7.52410705        9.04074265
   81      1      18.81690762        4.01202618       21.37542111
   82      1      11.08176601       18.97241674       26.21356810
   83      1      14.72673734       27.42467686        5.80783769
   84      1       0.75224195       21.96135061       18.57809849
   85      1       5.65443191       18.02370356        2.69695914
   86      1      26.85956858       25.14693931       19.91433949
   87      1       9.59043252       14.98424550        7.99169663
   88      1      25.29242926        3.79264808       24.48510259
   89      1      24.21792173        5.80899266       15.86469489
   90      1      11.76376521        4.50759541        2.43259511
   91      1       0.55829808       12.56133489       15.62611052
   92      1      20.00007688        0.46929389       15.62218818
   93      1      16.11814571       10.25518988       20.35640100
   94      1      22.84637125       14.22116027       24.06628966
   95      1      17.79648643       20.83515363       23.71067930
   96      1      10.17148233       19.77545164       19.76231427
   97      1      12.96908934        9.47099525       11.25272929
   98      1      25.51679819       10.07322558       15.27179377
   99      1      27.53598212        6.22190427       26.30558371
  100      1      22.75652283       11.61102444        8.02995133
  101      1      15.05548421       26.04784472       23.98313490
  102      1       9.00938732       14.68282572       16.84071462
  103      1      18.91282202       22.91246234        5.02347490
  104      1      17.86668380       26.52178451        4.10281217
  105      1       2.86204038       25.45583499        5.80593786
  106      1       9.69825530       10.00765827       18.14250577
  107      1      11.20436579        5.35046725       22.13139257
  108      1      23.72930560        1.48331178        2.63950415
  109      1      16.06066562       24.52984945       27.65003630
  110      1      13.88869398       13.62766074       19.48822250
  111      1       1.78830371       15.70666449        7.47223340
  112      1      11.09750373        6.91561458       16.52626346
  113      1      12.86166130        7.76025458        0.98718693
  114      1      23.70686573       24.40630177        9.54927412
  115      1      17.09950768       14.59407158        5.22821428
  116      1      19.85106624        4.88731737       25.94201023
  117      1       8.66055500        2.37396204       14.72240136
  118      1      18.94194060       19.03686046       12.98063830
  119      1       8.89234490        2.11569439       17.05853073
  120      1      12.54666933        5.88465482       14.81831182
  121      1      18.14832786       15.16237890       27.07606482
  122      1      26.95256942       14.25989726        4.59525322
  123      1       5.85325782       19.22228567       16.45877951
  124      1      14.47664982        6.79936250       21.05289336
  125      1       2.64583228       12.32571868       20.87602757
  126      1      19.63044585        6.31607355        3.74528554
  127      1      11.14091446       13.92548740       16.30058477
  128      1      20.89580685       16.66515911        6.56448609
  129      1      15.00289242       22.22882558       20.92734338
  130      1       5.04701653       11.00937759        7.07663946
  131      1      14.88890268       17.26076090        6.19606751
  132      1      25.04087874       25.14310746       15.30758714
  133      1      16.91417596       22.75488798       22.47362128
  134      1       5.20631897       23.18951931        7.64514762
  135      1       6.13586554       21.00622722        0.23332164
  136      1       9.48147385        2.00624048        4.96133713
  137      1       3.03933208       19.53700290       27.30791973
  138      1       6.29654654       15.02087735       11.18699027
  139      1      12.93348729       15.87738770        3.71379973
  140      1       9.62554195       24.47904840       26.08543493
  141      1      26.82914112        0.63721454       13.79504307
  142      1       9.16273453        9.68877786       25.60405872
  143      1       3.88096675        9.00945854        6.87375168
  144      1      16.95170033       23.50347030       11.04684491
  145      1      21.61521844        8.60401471        1.02829831
  146      1       1.80287680       21.88276558        5.95824800
  147      1      11.42040112       26.89492032       10.25856363
  148      1      13.73643374        1.84458350       11.99691596
  149      1       7.33780934        1.16198990        7.90822139
  150      1       0.39848717       12.15064986        0.60272819
  151      1       0.09123700        9.14537084        2.40417667
  152      1      15.44828662       20.64112582        4.73517684
  153      1       7.77287217       25.61338132        3.63346329
  154      1      14.10810327       14.38664565       23.38351198
  155      1      24.79822064       17.63260735       19.27595738
  156      1       1.86152747       24.94679724        1.75486428
  157      1       8.71837970        8.29417824        5.44969123
  158      1       1.28169996       14.17108439       12.23340456
  159      1       2.11978878        6.89383230       26.38316722
  160      1       4.29031749       20.57550385       17.89383437
  161      1       5.55156041       16.34243385       18.44184155
  162      1       5.05810913        1.12668538       13.79395299
  163      1      27.45450864        7.07999626       14.34195443
  164      1      12.83616525       15.10800869        9.56218644
  165      1      19.45956984       23.59837420       26.71592530
  166      1       5.85754911       15.25492725       14.87266039
  167      1      11.08417840       18.61955311       17.90458224
  168      1      14.68316331       18.30638742        9.84160435
  169      1      26.60227920        7.23965855        3.02344280
  170      1      11.50274971       24.52134351        2.74680795
  171      1      20.63296263       15.34534438       12.06524400
  172      1       7.38232976       17.94206009        9.24079828
  173      1       1.75534425       14.45444638       21.28028035
  174      1      16.29853218        9.24190819        6.32090527
  175      1       2.19193676       21.17203467        3.67659910
  176      1      18.08457481       13.56813758        8.55576751
  177      1      25.78649564       23.31160670       22.60186911
  178      1      11.54051786       18.20560682        7.90578086
  179      1      25.55051416       18.06624748        4.08254579
  180      1       8.29481096       25.22205315       18.98551314
  181      1      22.67148249       21.01689440       18.75990627
  182      1      15.40087011       21.77151519        2.73907209
  183      1      21.09306883       26.90373496        2.95036583
  184      1      24.98225697        1.50172328       19.38276658
  185      1      21.90533892        8.33797113        6.16454630
  186      1       1.90142534       22.92957181       26.14990483
  187      1      12.63108938       18.43491259       22.53734143
  188      1      17.47417810       22.60386943       27.39634969
  189      1      14.89653363        5.57087713        6.08589118
  190      1      14.19365576       25.59507135       12.39265048
  191      1      10.81353106        3.08808965       22.00473442
  192      1      25.75439702       25.38350545       23.78919332
  193      1      21.77366257        1.01040938        1.62468523
  194      1      10.26134001        3.54445067       26.73452375
  195      1      18.07443474       24.75351198       17.51053706
  196      1      21.35855075       20.64565348       16.94282348
  197      1      16.45587593       25.42777054       12.34549262
  198      1       3.40140994       26.88008705       16.44298282
  199      1       1.21570476       18.07838715       10.20429563
  200      1       3.99741738       15.94697661       26.17790391
  201      1      16.02482400        5.80291300       19.41186911
  202      1      21.95962607       20.54394095       11.23023911
  203      1       3.64478309       24.82726457        3.47968502
  204      1      18.28000707        5.70792441       12.34508879
  205      1       9.14032804       10.59015808        1.86043924
  206      1      26.81954381        5.50616433       21.32433325
  207      1      26.27683116        7.92027935       18.32279048
  208      1      26.87345224        4.87738740       13.21401334
  209      1      12.94025863        8.99204669       25.11039711
  210      1       4.70547371        9.27335983       22.35643496
  211      1      24.86096145       22.19931615       26.89385593
  212      1       0.17866495       17.87517730        4.68831913
  213      1      23.22172405       16.70321595       20.96821418
  214      1      13.20435133       25.92526611       18.12084462
  215      1      14.18927048       15.28807080       21.17192838
  216      1      26.27265694       15.96294735        0.99503249
  217      1       4.85915759        3.17817586       26.42681784
  218      1       3.80197733       18.64414695        6.32958739
  219      1      20.49214827       10.72173737       23.79569216
  220      1       9.95147546       22.35852173       27.20293956
  221      1      11.39737215       26.01256142       25.46244486
  222      1       1.74232530       12.30035634       13.59440763
  223      1       9.78976384        8.86291516       16.11363779
  224      1      17.30020224        3.81016216       19.58698937
  225      1      16.56152021       11.40103130       12.93261607
  226      1      25.54300774       14.38956191        2.60549652
  227      1       6.13954131        5.96500027        0.12512564
  228      1      13.66533070       12.07445428       22.99015179
  229      1      26.78016950       20.21367814       21.64149774
  230      1       7.61405456        5.60315433       10.26403756
  231      1      22.42889254       19.84446118       13.51380764
  232      1       4.38362794       12.16697212        2.32638549
  233      1       1.16697730       19.01580251       21.61469862
  234      1      21.37144429       16.11758678       14.10722149
  235      1       1.80131467       27.04411785       18.23091434
  236      1      17.08227933       24.93572728       23.60722173
  237      1      20.06669218       24.03253894        1.30162113
  238      1      14.19742304        6.10407339       11.44276989
  239      1      22.26811958       25.21006580       17.94393221
  240      1      14.67624510        9.97431784       23.68516237
  241      1      19.51813534        7.85442018        5.41556228
  242      1       5.48128373       18.64287410       23.67700430
  243      1      24.84306144        2.73488286        0.90147646
  244      1      12.06108364       12.85454135        9.58183749
  245      1       6.86579343       24.95947726        7.51209715
  246      1      18.98091982        5.08563597        7.15183170
  247      1      12.16298379        3.65845734       15.83371240
  248      1      22.53246986        9.82616925       11.62929952
  249      1       1.41292241       18.83157302       16.09770829
  250      1      16.09229715       14.16894420       26.58864277
  251      1       2.97728092        1.14019377        3.76302377
  252      1       5.17226737       13.10891830        0.25387314
  253      1       5.80879227       23.45783474       21.45777359
  254      1      11.83543108        6.84997898       25.48072050
  255      1       0.99428208       15.76602260        5.21320181
  256      1      24.21935902        0.31040031        7.94818373
  257      1      24.62785095        5.18060858        7.79410278
  258      1      15.45290264       27.57593002        9.58693497
  259      1      23.37552452       18.13803087        1.45182533
  260      1      21.21776135       19.97597667       20.32942625
  261      1      25.56836762       16.71357088       24.55989673
  262      1      24.91201152        1.25165400       26.62657818
  263      1      19.98452511       16.90130030       24.08952568
  264      1      12.83436686       18.75969038        1.39604566
  265      1      17.48115268       21.21902100        6.11654608
  266      1       7.54648285       26.63284919       10.75761332
  267      1       9.39643384       24.97937555       21.02615645
  268      1       6.94179264       19.94795768        8.18673739
  269      1       5.42444702       21.50644545        9.32041657
  270      1      16.35146783        3.66628245        9.44953009
  271      1       4.91212707       10.92642417       11.64182790
  272      1      21.80108822       12.00791155       20.42619892
  273      1      15.98711184       21.49046327       11.68628617
  274      1       0.02046573        9.83305152        0.12959279
  275      1      22.22782472        3.82858518        5.51905995
  276      1      17.81383367        7.27160510       19.17602822
  277      1       4.90682818       17.11502998       21.93314655
  278      1       8.91890885       22.90237236       10.54152941
  279      1      20.27145021       24.81117371       16.38229822
  280      1       9.60975810        9.65167392        7.13656171
  281      1      26.79227871        0.82813733       22.34266966
  282      1       1.99365773        4.97524354        4.26966468
  283      1      20.91741278        1.14717160       26.03896968
  284      1       2.61372230        5.84203081       17.65879689
  285      1      22.79555476        7.70046066       14.83835165
  286      1      15.50682833       12.61040289       11.19659539
  287      1       4.39509854       14.68379674       24.24510049
  288      1       1.45465402       10.29249009       24.31497267
  289      1      21.47405519       25.38736694       21.63591353
  290      1      10.39692116       11.23311956       21.55932194
  291      1       4.09399803        4.08998283       16.62448998
  292      1       2.92382443       20.60472514       21.68622804
  293      1      23.49623908       25.72666199       27.22210073
  294      1      20.69534227        1.03379046       19.44979911
  295      1       0.12011680       14.06999840       23.01429112
  296      1      17.90791890       17.57643406       21.25093378
  297      1      14.29105837       15.04248778        0.23028646
  298      1       0.55850881        8.43513478       23.33053163
  299      1       4.73902653       27.05014769        0.58866687
  300      1      19.35762807       25.39840614        8.37882096
  301      1      14.64105977       14.68405843        2.48347310
  302      1       7.24004069       11.04466885       25.63856607
  303      1      17.24298024        4.37952398        1.57680998
  304      1      19.96779675        7.17272466       22.63240208
  305      1      16.82772823       23.90264541       15.60204672
  306      1       4.08239028        9.91577093        2.03524808
  307      1       1.53346018       20.31123681        9.48352647
  308      1       9.45788580        0.82943485        7.05409350
  309      1      24.84183950        1.15574355        5.89279486
  310      1      20.18922552       16.98110599       18.23641950
  311      1       0.93848701        2.97467185       27.62499419
  312      1       3.11825310       10.97315296       22.78207626
  313      1      23.84712984       22.19667871       23.05534736
  314      1       1.38454200        1.64615145       18.76584762
  315      1      14.89519359       27.49754230       17.57080925
  316      1      13.23661102       21.45395527        5.41716356
  317      1      25.62988053       18.97102999       11.96962996
  318      1      24.61328483       18.45658469        9.81296232
  319      1       4.25818016       24.74458901       12.37544497
  320      1       7.76751286       24.31696298       13.62193500
  321      1      12.57317525       17.64513267       24.82992476
  322      1       2.03449760        9.34588509        5.52777607
  323      1      20.30362571       13.01034747       12.27313002
  324      1       9.92100663        0.72228094       19.93492703
  325      1      23.92232155       22.65213540        8.04373973
  326      1       8.34284242       26.44736843       12.84807935
  327      1      23.44047683        6.00256905       11.52967654
  328      1      14.79838851        7.74804091        5.24643720
  329      1      21.64236309       22.36062216        7.62291784
  330      1      23.75347439       16.28829726       13.94604902
  331      1       3.79033784        5.18309951       12.55728011
  332      1      22.62776451       18.79640779       21.84577286
  333      1       0.68365891        3.76488575       21.92622607
  334      1      10.99630529        2.23675055       14.26317451
  335      1      26.21826012       21.19428418       11.84266204
  336      1      19.63020964       20.47875981       11.19792113
  337      1      24.85676630        5.18527941       22.61923338
  338      1      19.87594112        4.36188212       11.02990570
  339      1      19.05222637       19.70892764        7.10868587
  340      1       8.79042234       13.05808438       13.37803107
  341      1      11.43459785       11.06045446        1.92279537
  342      1      18.75137083       19.18622193       27.05532034
  343      1      26.90815042       15.84765321       15.41469482
  344      1       3.60672688       25.82664385       23.96134340
  345      1      10.13628324       21.98687537       19.12869036
  346      1      24.08865611       10.92315571        0.86178021
  347      1      13.47550780        5.13306403       25.08599230
  348      1      25.88643695        8.62352261       13.47958521
  349      1      26.23826561        9.58781004        6.93129803
  350      1      18.18852154        1.13436964        7.28008450
  351      1      26.69770199       22.93388679        3.47691440
  352      1       8.10258749        0.28366297       26.39302870
  353      1      12.92371978        2.31637967        8.25678556
  354      1      19.75322697        8.98768249       25.47824900
  355      1      16.13146964       14.91263036       24.33885004
  356      1      19.73392057       12.45516034       10.02222835
  357      1      18.21780272       13.27662384       19.19421886
  358      1      22.66903548       18.82321498       25.66026883
  359      1      25.82294290       25.29651846       10.00835242
  360      1      15.11539993        4.39981811        0.67228585
  361      1      12.37019819        3.04240474       25.69413266
  362      1      10.16091714       20.42825565        2.69879372
  363      1      26.12376103       24.74179077       12.15414456
  364      1      16.16738903        1.16680376        2.09201267
  365      1      18.99965927        0.79159424       17.81678789
  366      1       6.61803661        6.74011134       24.02196256
  367      1       6.68062507       15.67773933       21.67145302
  368      1       8.37754392       25.86213345       27.53375127
  369      1      15.59059557       20.09482966       18.01214068
  370      1      10.86035695       27.49509965       23.68089721
  371      1      26.93440369        3.73094884        1.47189328
  372      1      23.16833646        5.75473134       17.99929951
  373      1      14.33162752       12.64831199        3.50094107
  374      1      16.80735699       15.47134417        2.99020813
  375      1       6.23707900       14.48123527       19.69758120
  376      1      26.10200418       20.47068501        6.48651036
  377      1       9.04760548        8.35640817       19.78591764
  378      1       3.95639333        7.33888760       13.58160578
  379      1      27.04621252       12.80641241        9.50076988
  380      1      24.75944754       19.95141178       18.43972797
  381      1      12.72400077       22.29322071        9.45605455
  382      1      13.07569391       23.69942389       21.25703384
  383      1      23.92165078       10.50013497        9.80371636
  384      1      18.12709014       11.37492931       20.78782495
  385      1      14.32167721       20.61124274       16.07687859
  386      1       5.82526323       19.71439256        6.17038740
  387      1      27.04189548       19.72451733        0.86635038
  388      1       4.17595082       17.74341840       19.84182945
  389      1       1.06479812       10.92382490       17.33313890
  390      1      11.12859100       22.30336255        1.69752209
  391      1       1.61823915       17.59095231       23.47075779
  392      1       3.72671810       27.25581486        7.13967154
  393      1      26.44791801       21.52756941       15.37646647
  394      1       7.37238478        0.42820478       14.25293630
  395      1       4.49592150       27.13826277        3.03952892
  396      1       5.50270268        3.50000686       13.08939511
  397      1       5.62233706       15.34058506        7.28904337
  398      1       6.31893462        0.03679932       20.89958059
  399      1      27.08328752       17.85295795       16.57760832
  400      1       9.01944963       18.40234375       10.88072112
  401      1       7.87944325        1.27508502       10.21326933
  402      1       1.80165907        4.16800490       13.20621097
  403      1       5.66160590        3.30575270        4.06045866
  404      1       7.41072505        8.24925500       13.02034445
  405      1       1.04788488        7.47088863        8.67756551
  406      1       2.72102264        9.66544402       16.10096683
  407      1      25.26847919        2.24631142       10.48363166
  408      1      19.28603464       26.73479076       10.36321649
  409      1      18.38252097        2.69262604       10.48049291
  410      1       7.56606762        5.37893172       17.89775179
  411      1      18.35114801       17.21822167       25.82417132
  412      1      11.86886966       10.87605861       18.34382822
  413      1       6.13960535       25.17843339        0.19648329
  414      1      14.54934994       21.29953549       23.82988230
  415      1       3.08903383       15.62676071       12.23193346
  416      1      12.21532448       14.24118463       27.09949807
  417      1      21.58924157        1.50558471       10.74027473
  418      1      22.91943573        0.02317754       12.97045767
  419      1      10.68380651       26.41948305       12.67135663
  420      1       6.60475903       10.52242239       21.76078839
  421      1       0.61255510       12.43466504        4.11059877
  422      1       7.73362317        9.76409527        3.79694510
  423      1      19.88934462       23.24977047        8.96594897
  424      1      20.70689497        8.46650485       10.68890955
  425      1      22.41083380       24.14447856        1.01181955
  426      1      17.28956357       20.76666283       26.00296833
  427      1      12.75997733       18.45408963       11.16550581
  428      1       3.37750309       25.05489889       14.76169219
  429      1       5.83085411       12.99061428        4.01427343
  430      1       7.40065097       13.01070567       26.93107763
  431      1      24.49049655       22.82339614       14.84869521
  432      1      22.70937214       22.92607500       11.32557607
  433      1       3.56365259        3.28982210       24.40463425
  434      1       0.62562561       22.80087430       16.42852630
  435      1      21.07332884       25.80321120        6.75916047
  436      1       8.41721443       24.93321574        9.38346733
  437      1      15.97726674       23.79181474        8.82193483
  438      1      12.97786210       25.39111319        1.09915466
  439      1      20.73102344       13.12872637       16.68661662
  440      1       3.83423745        7.92231118       17.15068741
  441      1      17.22615536       25.18618912        7.43131821
  442      1      17.26934800       15.77512504        8.70949687
  443      1      10.09672723        5.07540773        0.84727333
  444      1      15.32578753       14.92102222       11.93772824
  445      1      11.01368242        9.07406244       12.55976323
  446      1       4.33144943       22.31962214        3.76630495
  447      1       4.92753950        7.02907840        6.02810577
  448      1      24.93628459       19.02565427       24.85413773
  449      1       6.42484125       27.34100646        4.37508180
  450      1       9.41872481       27.38589013       17.72931025
  451      1      27.48730773       26.82767211        4.22641138
  452      1      19.61328537        9.32120753        0.07979012
  453      1       0.89293736       23.14125908        0.49112874
  454      1       5.93847678       10.83074635       19.49401070
  455      1       0.34651054       21.59646233        2.12426817
  456      1      17.33251439       11.95985859       17.34837519
  457      1      11.18730895       24.28852032       13.70067864
  458      1       4.63012439       15.23719107        0.66518129
  459      1      22.02793453        3.99695709       12.19678092
  460      1      20.13212215        5.58899873       15.39603817
  461      1      19.79658392       12.86987608        1.86673880
  462      1       4.38672361       11.45099927       15.74164276
  463      1       5.31133850       27.51298277       24.49082344
  464      1      13.22029970       15.10462642       13.14871223
  465      1      23.24649177       22.83060373       25.20785186
  466      1      17.09096619        9.28133363       11.96171761
  467      1      24.57997183       20.18326975        4.72755767
  468      1      21.85866395        2.66232857       22.69867808
  469      1       7.76629609       16.41825534        7.48710468
  470      1       5.33394879        6.85651344        3.70904969
  471      1      25.63198834       11.66791537       25.06497867
  472      1      22.82329399        1.68295011        4.89043567
  473      1      22.50133217       11.99623942       15.41756762
  474      1      27.65546197       21.95241605       23.00671116
  475      1      11.48059316       21.25720128       25.85416540
  476      1      15.72782388        2.27784457       20.25558924
  477      1       7.74518120       11.42779550       18.13001832
  478      1      22.79579901       12.30833301       27.22081622
  479      1      11.81943313        1.29539821        4.51950431
  480      1      12.19485562        4.61478510        8.35976876
  481      1      22.32175605       19.71117867        5.16152460
  482      1      14.57742700       23.01232140       15.50042517
  483      1       6.72835489       14.42159888       23.60665172
  484      1      17.88756553       19.16009238        1.62476242
  485      1      18.68554349       14.96645587        1.72514192
  486      1      24.60486865       25.03148934        6.09934353
  487      1      19.43801666       22.25345637        2.85520962
  488      1      16.10994975        4.84490598       11.65962283
  489      1       9.31507390       17.13115187       16.80902547
  490      1      12.21836923       15.79822461       15.22904440
  491      1      11.95103908       20.33523420       16.42745973
  492      1      27.22384542       15.75035884       13.00541488
  493      1       3.17003444       22.95814961       15.71921673
  494      1      19.08042298       26.12911821        2.11628479
  495      1      17.92197185       22.75362385       18.65847577
  496      1       0.05500510       16.92964544        8.45241593
  497      1      23.62310310       25.16730868       24.93788278
  498      1      20.19869230       27.12428878       24.66100649
  499      1      24.65101348       15.46971012       15.89702045
  500      1      18.81517024       13.34849457        6.30902135
  501      1       6.36978513       21.98798888        2.32627170
  502      1      18.18495846       14.05132661       23.45327282
  503      1       1.61203397       19.40010398       13.63636612
  504      1      22.36937503        0.38275824       15.28441640
  505      1      17.88957683        5.40126012       14.73466105
  506      1      16.05189885       10.05953549       18.00343024
  507      1      22.03720182        6.75907338        9.74826708
  508      1      12.88626967        9.39271136        2.69057095
  509      1      13.79605344       27.58628093       13.56776333
  510      1       3.02909307       15.61442719        4.14974980
  511      1       2.50872073       16.42782821       16.13231382
  512      1       8.66849062        8.08342132       23.82623727
  513      1       7.93638741       16.83071349       26.21877115
  514      1      17.88808812       26.60891703       22.14116378
  515      1      12.68653536        4.77708407        6.08651498
  516      1      13.18679905       23.73703479        4.65451383
  517      1       7.16961241       20.12703763       22.92614554
  518      1       1.37041791       10.17250298       12.53655833
  519      1       9.98292213        5.52042890       18.06529094
  520      1      18.64364453       25.44243817       25.40959537
  521      1      23.15718433        2.01201762        9.11538417
  522      1       3.94343817        5.51271960       10.18119836
  523      1       3.13211034       15.89664081       22.66913889
  524      1       4.10698679       12.23232976       13.51680848
  525      1      16.37274813       17.28015295       24.60436135
  526      1       2.47258938       26.52902087        0.08103371
  527      1      12.90599802       25.99694499       20.57774144
  528      1      20.83665719       18.38981091       14.38404633
  529      1       3.98638921       21.91568203       26.86777634
  530      1       4.63335151        3.30792165        6.17448780
  531      1      14.80180077        8.23424475       12.21139728
  532      1       7.31339149        7.75857865       18.15251011
  533      1       6.46906758        3.32123095        7.57641938
  534      1       4.87631944        8.17985835       24.38737130
  535      1      14.26005817        3.46527841       16.82134844
  536      1       3.22158000        3.67172215        0.50694361
  537      1      23.75127840        6.78858438        3.09545333
  538      1      18.98127007       21.20244579       17.08083026
  539      1      20.49030912       23.09797097       14.61509587
  540      1      23.71812045        3.75797673       19.35285085
  541      1       1.22938226       23.83092284       20.12592391
  542      1      12.94771002       23.00903771       23.56424389
  543      1      13.40442095       23.60587951       13.41038676
  544      1       2.64825987       25.66061863       19.99955815
  545      1       2.99336656        1.57145889        6.12075715
  546      1      24.69498579       11.70962505       22.86319145
  547      1       8.00999989       18.89431606       19.86414330
  548      1      10.91028443       19.28357135        9.91022243
  549      1       4.84817998       22.11096091       24.68687917
  550      1       3.38759627       12.62066621        6.70555979
  551      1      23.84630125        2.40310580       12.67486402
  552      1      17.60679472        6.39061083        2.54599847
  553      1      18.53534150        3.14406986       17.73266481
  554      1      17.56529373        1.83616542       25.19728276
  555      1       6.78147130        3.22209944       22.24209725
  556      1      18.98516913        1.65743947       27.30164275
  557      1      17.76385240        7.96187984        0.82193367
  558      1      23.17216203       23.27650203       19.31018837
  559      1      22.79018913       25.36890778        2.88760477
  560      1       0.12535903        7.40493876       20.13673639
  561      1       7.71167590        4.74068342        1.43542158
  562      1       0.67578984       23.72528815       12.63684956
  563      1      20.26858552       16.70256645        2.13228279
  564      1       7.56281679       11.51490926       12.03003724
  565      1      26.78903560       24.28601247        6.80449885
  566      1      26.71565326       13.07486205       19.75506604
  567      1       0.82027018        2.12594415        7.15275506
  568      1      17.34616814        3.29212280        7.20390997
  569      1      27.31647460       24.96147353       16.03609586
  570      1      20.98184962       22.07959847       25.63074062
  571      1      13.38989193       15.21843930        5.94487002
  572      1      17.08871165       20.49003014       13.58189214
  573      1      25.52034215        0.30274524       17.43396534
  574      1       2.62820802       26.95380009       22.11942477
  575      1       8.95901656       18.76668951       25.46841758
  576      1       6.22843555       24.41302867        2.35488369
  577      1      13.12255513        7.47060311       17.73641565
  578      1      14.63886384       19.64545310       21.84803430
  579      1      15.71168657        8.53549457       21.97657990
  580      1      27.13589161       21.58061705        9.71583068
  581      1      21.29037138       18.77309036       23.76456163
  582      1      23.23192415       23.84854152        4.58382591
  583      1       6.71661994       21.03238438       20.72331498
  584      1      24.42876033       15.95727894       10.11501754
  585      1      20.64400479        6.87846457       24.87540332
  586      1      14.62173330        2.02541444        9.77212384
  587      1      25.86112447        5.80980148       11.17647792
  588      1      13.56132200        9.79793747       15.14644831
  589      1      17.20686129        4.76451023       22.98298180
  590      1      21.38473381       20.15483872        7.27601047
  591      1      18.68488370       16.83173824       12.06950414
  592      1       4.90209654       14.39087114       12.96988790
  593      1      11.02268189       14.75976266        3.05384174
  594      1      20.89227485       20.31324203        3.26022938
  595      1      17.83223901        0.00048088        0.74319401
  596      1      25.29430977       26.89848894        4.78773775
  597      1       0.20988306        4.96851425       17.52544514
  598      1       7.40848105        4.35853193       14.11065499
  599      1       8.90088549        4.42143825       25.07679101
  600      1       7.50057699       14.22205650        2.96958478
  601      1      11.74000363       15.91544867        7.73033257
  602      1      12.04884548        1.88513488       23.65226229
  603      1      17.56444036        4.22063794       25.21855215
  604      1      13.70813734        6.28576373        9.20793701
  605      1       3.56097159       12.22496522       26.49841992
  606      1      17.57932909        1.65074047       12.39150395
  607      1      27.21330342       17.10988859       18.86954876
  608      1      27.61326120       26.44760693       25.05821597
  609      1      16.24305475        6.83768042       15.77026270
  610      1      25.84213997       26.49526820       21.63732072
  611      1       4.49959301       12.70638056       19.40752951
  612      1      19.50109505        9.17185347       16.42037931
  613      1      25.43174676       23.30035204       20.15817277
  614      1      11.51395395       26.54244312        4.79025338
  615      1      18.00023307       10.45310120        9.97334682
  616      1       2.13359717       19.39484460       25.07290919
  617      1      13.64430825       26.15076634       10.18207164
  618      1       9.01554093       20.83593001        7.31692256
  619      1       1.97163076       19.94483145        7.16839575
  620      1      10.78512934       19.85474479       22.15686452
  621      1       6.90179948       22.80912003       16.93098106
  622      1      11.95199507        9.57044463        7.21176621
  623      1       5.78401776        0.91477012       26.71025281
  624      1      16.85967337       15.92604348       13.35332625
  625      1      15.20380070       11.41940052        7.15186884
  626      1      22.61949447        3.91836850        7.84719329
  627      1       5.82408551        4.24578841        9.60501783
  628      1      16.01350808       16.66437405       20.22667311
  629      1      10.71364990       22.02192509       23.36218141
  630      1      16.16033942       17.69633443        2.22160783
  631      1      20.62908130       13.58562852       19.10709600
  632      1      24.37131069        6.39471367        0.76143885
  633      1       0.91111307       14.65866228       16.67411846
  634      1       1.28330953        2.78761961       24.05300463
  635      1      18.27542558       22.11340403       14.99343153
  636      1      16.91995102       26.46098472       26.66476520
  637      1       5.69694303       17.65237430       25.95516376
  638      1       9.06645395        8.83137307        0.12683058
  639      1      23.58523462       22.08205600        1.24425235
  640      1      27.50483522        3.91815198       25.58816393
  641      1      10.99893893        1.20641547        8.90911400
  642      1       9.13212753       15.11338318        4.41715861
  643      1       4.66167214       20.08800239       20.10526410
  644      1       1.36388613        2.69762322       11.17530557
  645      1      14.52114606       27.12992507       21.88056129
  646      1      19.33654180       13.75991503       25.54476143
  647      1      21.33817371       15.77435376       27.46975551
  648      1      12.33970046       15.23370545       24.85242911
  649      1      21.54697607       18.27282569       16.75551886
  650      1      20.11411756        6.54654679       19.09115037
  651      1      26.91033566        9.66417831       11.70599220
  652      1       5.23130681       14.02876876        9.25614324
  653      1      25.30470909       12.03248549       18.19850691
  654      1       8.05782936       20.90246703        3.57730459
  655      1       2.02570765       12.80366440        2.26574438
  656      1      11.85918501       13.05838233        5.92924003
  657      1       6.64110434       16.07798021        1.77776057
  658      1      26.28355264       20.39651185       26.33231420
  659      1       7.91112508       22.65909814       19.03362549
  660      1      16.24845340        7.56928205       26.69249709
  661      1      19.38122469       18.52159196        3.33037575
  662      1       0.95003848       16.26375765        0.73030457
  663      1       1.17101196       25.35359224       14.21489017
  664      1      17.12152511        9.81607390        2.42520670
  665      1      15.01273555       14.54592898       17.58682584
  666      1      11.98675278       12.64603178        3.57689679
  667      1      13.07171768       19.81567213       12.98777817
  668      1      21.15596396        9.09315531       22.10931576
  669      1      20.71620311        4.99795344        8.87416218
  670      1      24.08152416        7.55646425       19.21683246
  671      1       8.48790994       11.72110239        6.82304596
  672      1       7.57156203       13.61685680       15.27088287
  673      1      16.36823213       27.31461680        7.48299698
  674      1       1.55629733       12.82808439       10.23583447
  675      1      25.68601967       11.55259251       10.92919923
  676      1       8.21260915        4.80207285        7.05939502
  677      1      20.40336616        4.74095454       17.60844383
  678      1      10.44231895       18.62055786        0.92667100
  679      1       2.01296347       22.74769747       22.04970787
  680      1       3.38824876        2.44634375       19.77263366
  681      1      12.62588751        8.67327502        5.05395484
  682      1      19.93635280        1.97674302       21.62370220
  683      1      15.32181058       23.85158540        3.75924070
  684      1      23.30037065        9.74904242       15.91957846
  685      1       2.29808524        8.82289150        3.19343136
  686      1      22.44220241       10.17130140        2.58605712
  687      1       4.23731442       12.30060150       24.28903885
  688      1      20.72672446       26.32630770       12.36616265
  689      1       5.28420307        8.59129915       18.87633581
  690      1      16.93992322       15.40335877       18.51188405
  691      1      20.94332218       10.24556016        7.22613251
  692      1      15.61446671        5.30286244       26.22331204
  693      1      18.95751565       17.79894623        5.73530925
  694      1       2.00451357       25.35988429       25.67380043
  695      1      21.35292845        6.53829691        2.17396438
  696      1      23.53649073        8.16593086       27.13627496
  697      1      18.99260571        0.69675843        5.15694379
  698      1      20.96732834       11.78754168        3.65932165
  699      1      23.50448938        8.31924819       21.64910178
  700      1      21.12473390       27.62291600        5.17421308
  701      1      25.04381135        8.75072180        8.74448721
  702      1      10.76565791       23.10716839       21.02734976
  703      1      10.50768602        6.73990115       12.07285086
  704      1      22.31271944       21.66586280       15.03394504
  705      1      19.30766223       15.85885145       22.06456742
  706      1       0.21125194        3.13070519        3.59736730
  707      1      10.80443519       26.76154192       21.39206934
  708      1      15.12496359       19.34770044       14.32907606
  709      1      16.44690265       27.61734414       20.60738909
  710      1      23.32380957        4.46571856       25.61975646
  711      1      14.52878971       17.40792607        0.41558224
  712      1       8.71514137        0.55552178       24.11807632
  713      1       5.46373903       17.69711500       14.57505899
  714      1       2.44640812        6.47777927       19.93227116
  715      1      16.29801759       20.09921548        9.81801775
  716      1      10.17741538       19.03702741        6.23998011
  717      1       1.34345365       27.53171846       13.41603927
  718      1      11.32539029       10.70824176       25.46484118
  719      1      25.42394792       19.42429023       16.07468680
  720      1       2.01393440       20.00788744       18.02102704
  721      1      19.12606504        2.63348069        3.82280239
  722      1       3.72639844       10.08876837       27.35083894
  723      1      24.01480753        4.83327766        4.33038769
  724      1      12.28127693       11.83656784       27.40196895
  725      1      10.10574463       13.36842259       20.24846014
  726      1      23.32402882        8.84683953        4.30318620
  727      1      13.68112639        1.94779402        5.97189984
  728      1      23.40979774        7.30120185        7.93501524
  729      1       0.14554311       16.04171509       24.35882609
  730      1      26.69712196        2.71081618        5.65926447
  731      1       0.54361938       21.18193416       25.14228325
  732      1      26.30883161        4.41227093       19.32532834
  733      1       7.26468269       17.91959861       17.82437703
  734      1       1.46899182       11.55941414        6.00283150
  735      1      19.22073750        2.14942604       14.22065215
  736      1       7.72766518        1.84618121       20.40601213
  737      1      20.91924560       14.32925228        6.46434864
  738      1      12.80892424       11.68286237        7.57258486
  739      1      13.79011779       18.72271124        7.76855023
  740      1      23.17640056       14.49549125        2.86723173
  741      1      19.15580812       11.48600903       15.97228441
  742      1       8.25854209       13.60526739       18.80942807
  743      1      22.93877129        6.79247826       25.25985878
  744      1       7.19313718       21.74906625       24.59507455
  745      1       3.34423845       21.33587449       10.63913217
  746      1       0.97049186        0.39579003       23.56590311
  747      1       6.05127137        8.73182828        2.50685931
  748      1       5.71723552       17.28949048       10.77196261
  749      1       9.97968362       26.21975151        6.53126715
  750      1      18.46979482       19.41961293        9.40396903
  751      1       9.21596584        1.72832133        0.07194814
  752      1      22.66480311        2.63976925       15.77923601
  753      1       3.84460567       20.22017040       23.78126647
  754      1      15.71794019        3.37954955        5.43949760
  755      1       7.11033274       18.88901207        4.36379688
  756      1      23.14572140       17.05484338       27.12841211
  757      1       3.78877688       20.22266717       12.70392800
  758      1      25.62621085        9.62829822       26.46339779
  759      1       8.79395972        8.94331519        9.39228353
  760      1       0.10332389       17.97676971       12.27060281
  761      1       3.16174591       17.18759795       13.96492238
  762      1      11.04573069       19.66358024       14.36930571
  763      1       7.40232911        1.65071374        3.64490525
  764      1       2.60351030       15.04753315        1.94759396
  765      1       3.73611515       17.78054875        4.09858478
  766      1      19.19412331       18.72235724       19.59363367
  767      1      14.62860456       18.13008919       25.85811040
  768      1      18.64416311       23.02994395       20.87508613
  769      1      17.07206538       16.50781631        6.51409207
  770      1      20.71816619        8.83708641       18.44302803
  771      1      24.40710515       13.15286104       16.27147905
  772      1       8.76149332       23.38975428       24.10797930
  773      1      14.02921495        1.92877185       18.63404692
  774      1      20.10036228        2.71371477        1.55785331
  775      1      10.45534551        7.19209541        9.74065467
  776      1      20.61616046        5.55232572       21.14810771
  777      1      15.59615307        2.89079900       12.91107293
  778      1      13.26749467       11.82508280       11.25958878
  779      1      19.43097377        9.08853387        8.74828334
  780      1       7.42352995       26.91758545       16.23183888
  781      1       4.79155916        7.67682081       10.01820694
  782      1      24.49097502       26.89146020        2.63615458
  783      1       3.62841992        5.97822562        0.48913596
  784      1       3.72591192        5.11699683       23.00013564
  785      1      13.67825001       23.58804467       17.63650098
  786      1       7.18449998        6.90580107        6.79166184
  787      1       9.65550825       13.62833317        6.19353139
  788      1       4.97766249        1.92493060       23.27091235
  789      1      27.26900485        2.14937141       20.30372734
  790      1      22.07889191       15.37955310       10.03554679
  791      1      21.49859820       13.49043938        8.66261002
  792      1       6.51089822       12.00259510       23.62848646
  793      1      23.95427827       12.20729265        6.04947820
  794      1       6.15164201       26.18359483       19.20669204
  795      1      27.28788448       25.16156726        2.67638533
  796      1      25.01493406       15.17588809       12.29038618
  797      1      25.73847266       13.66024622       21.93518411
  798      1      15.13666756       25.42411082        2.13659952
  799      1       4.51051160       14.25527806        5.40903782
  800      1      10.11384591        6.22325117       24.04527099
  801      1      10.67840552        7.50648198        4.36818982
  802      1      26.46319162        6.49850221       16.42525527
  803      1      20.14527549       20.88757148       23.70288290
  804      1       9.49921623       22.93686053       12.88893925
  805      1      21.13980693       23.64031182        5.76900484
  806      1       1.82874216        9.22652041       26.48458601
  807      1      10.74668350        3.40470740       17.70086753
  808      1      21.07710769        3.70274943       14.32994278
  809      1      21.04190021       20.10802914       26.95619761
  810      1      27.55694181        6.27245405        4.95670659
  811      1       8.56238797       17.00527025       21.47451137
  812      1      15.85863789        5.97595894        8.21667040
  813      1      16.53059933       11.83638350       26.79089513
  814      1       8.34944934       14.68742684       25.25936703
  815      1       7.65057197       24.67814481       22.49766604
  816      1      26.42511585        7.87262503       24.84509752
  817      1      14.53285477       10.97543443        0.06357538
  818      1      11.64969307        3.03809448       12.16027687
  819      1      10.86856327       12.37632407       14.45207732
  820      1       1.68738231       18.19849918       19.53632651
  821      1      13.79553232       21.06874860        7.66057562
  822      1       0.76397999       11.32463527       19.85465216
  823      1       0.73401253        3.62519962        9.02530364
  824      1      10.27280454       14.71796750        0.85341581
  825      1      27.33492080       23.87294294        9.01101146
  826      1       6.16772729        5.21654757       15.95124175
  827      1       0.83604064        0.91829493        2.98753333
  828      1       5.89693454        5.61729220       22.09156354
  829      1       8.81882930        9.60779748       11.74580565
  830      1      26.64018966       10.91482476        3.45382866
  831      1      19.58511038       11.25310661        5.49581206
  832      1       2.19578134        5.39356767        8.52987868
  833      1      15.47327048        0.05069783       15.25691724
  834      1       4.15011684        0.91173948       21.37406935
  835      1      25.86949102       12.26191573        1.69141140
  836      1       8.35014883       24.63065781        5.68756185
  837      1       2.66616471        4.42852856       21.02291684
  838      1       8.05431635       24.59137057       15.89051314
  839      1      22.04164353       26.72980483       19.78141265
  840      1      22.30418372       23.20774987       21.49933403
  841      1      10.35449109       15.35945830       21.59372050
  842      1       5.23149557       18.87432120        0.34201498
  843      1      12.28948140       10.18140020       20.46771333
  844      1      24.98304528       15.67236541       26.61329861
  845      1      13.31013959       24.81827006       24.91711976
  846      1       2.21126119        0.51204634       11.22403953
  847      1      24.35692243       15.52221145       22.75954914
  848      1       5.89102802       23.19540558       12.78712521
  849      1      19.14252227        7.95530145       12.47787627
  850      1      17.50722798       21.46489327        1.79098921
  851      1      15.64961635        2.43853129       15.22433457
  852      1      16.72647402       10.69616986       24.65336394
  853      1      15.14866125       13.34116325        5.64403555
  854      1      11.67583225        2.34998262       19.61667543
  855      1      11.48177235       22.56151408       17.26580361
  856      1       1.91220951        8.46971533       14.13607284
  857      1      23.21978526        0.79982321       22.86536008
  858      1       6.88247785       21.04018886       15.39770239
  859      1       9.00830618        4.32153224        4.98496238
  860      1      10.48109098       24.36803227       15.96261690
  861      1       3.32943814        5.23321236        6.35748783
  862      1      14.27700558        1.50519232       23.21458869
  863      1      20.22602356       10.24013150       20.29802066
  864      1      18.54986015       12.37977267       13.78172580
  865      1      27.24789539       26.34551195       17.89248382
  866      1       6.79451327        8.17378059        0.32057571
  867      1      11.03980774        5.26732188        4.49868528
  868      1      22.75579669        0.31353158       27.23512410
  869      1      23.64117330       17.10234652       17.26588707
  870      1      20.97715654        4.71084993        0.60649067
  871      1       5.25054674        8.59974095       12.10863434
  872      1      25.03109460       10.06286062       21.30191099
  873      1      13.95274668       16.40850864       16.66530768
  874      1       3.40584171       17.02602005       10.18452662
  875      1       4.42502790       15.23056636       16.71692164
  876      1      21.84228782       13.80476122        0.99144592
  877      1       2.97063067        0.84154143       14.82638616
  878      1       3.12848537        6.58877079        2.80379380
  879      1      26.07742610       27.63383790        9.35136827
  880      1       6.78778197       11.30933669       15.96218922
  881      1      15.08666667       18.46879990        4.19836676
  882      1      22.96550704        9.28303706       18.17896046
  883      1      13.78446499        5.83722092        1.95640135
  884      1       5.23392344       26.28118955       10.83044084
  885      1       2.74171006        7.03798804       24.07541278
  886      1       0.35069952       27.64945701        7.96151265
  887      1       1.91679881       24.52675545        9.19068523
  888      1      18.80207167       17.17886068        9.75865472
  889      1      22.44491452       16.66907779        3.03869940
  890      1       1.52557531       15.52377520       26.27594960
  891      1      12.31947552       16.61965471       20.99726191
  892      1      13.62163815       21.85220817       11.80976959
  893      1      25.75129623       25.86325099        0.67694427
  894      1      12.17717457       27.19507597       27.40246430
  895      1       2.84988779       13.82157738        8.63361360
  896      1      19.46432615       26.25753093       14.52225448
  897      1       2.96625064        8.83529056        9.05487882
  898      1      22.84059345        4.42595809       21.46156638
  899      1      25.17523000       26.57072701       13.38977414
  900      1      17.53522421        7.23609027       22.94656849
  901      1      19.21947707       22.81538795       11.12938784
  902      1      17.10303138       25.95480068       14.48835632
  903      1      26.67956568        5.98830095        0.92225262
  904      1      17.78295904       14.35647056       14.77976394
  905      1      14.24222698        8.77231065       27.03596498
  906      1      17.13727815       26.92665503       18.36949467
  907      1      23.94009996       27.65074135       20.78602313
  908      1       0.62797474        2.80200112       16.75949899
  909      1      11.32301974       26.47957539       16.63926660
  910      1       9.59072183       26.08493302        2.07799675
  911      1      26.76200005        7.83186458       10.14923708
  912      1       6.01989149        2.47408978       10.93856397
  913      1      20.40159087        7.82273750       14.66092394
  914      1      22.12852587       26.47055340       23.60324383
  915      1       6.70638941       11.29984455        5.35441414
  916      1      24.50627365       22.18726004        3.42804481
  917      1      22.20898455       20.19577978        1.32934480
  918      1      26.52251341       10.07821077       17.37092438
  919      1       5.36706939        7.34457123       15.49557127
  920      1      11.32194098       12.10077491       23.54024303
  921      1       8.93566170       20.86309509       13.94557699
  922      1      13.57222372        5.24255250       22.62534253
  923      1      17.52219709        8.52041418       24.95970214
  924      1      17.26479103       24.53119715        5.15214530
  925      1      26.11502826       14.99947154        8.66774335
  926      1       5.74311329       18.79647159       12.54111949
  927      1      11.65727203       27.64071869       14.47437151
  928      1      16.43552728       12.02954402        9.08664191
  929      1      13.65853057        1.27458376       26.74419901
  930      1      17.78225775       19.29007125       17.69547263
  931      1      19.60658374        1.10944981        9.32341645
  932      1       3.52783921       13.08499264       17.25558571
  933      1      19.98768845        4.43442805        5.05539949
  934      1       2.22633196       26.89435964        9.13169826
  935      1      21.01950005       15.73146166       20.19072034
  936      1      15.42725404        7.29736622        3.10320918
  937      1      14.88080850       10.65518872        2.34654963
  938      1      22.40753224       11.95861380       12.96337031
  939      1      14.72947708       11.77396767       14.46818688
  940      1       8.13125343       22.21858471        5.55579422
  941      1      15.80682116       17.21131304       15.19445423
  942      1       5.69260414       21.99173771        5.72967559
  943      1      12.63414482        7.78682937       19.98118610
  944      1      12.22276193        2.14239847        2.35551249
  945      1      26.08572611        4.25162477        9.47624492
  946      1      15.45629328        0.52975285       25.32171680
  947      1      12.48148484        8.30436429        9.19035685
  948      1      15.58312832       22.31301415       18.74087425
  949      1      21.39647465        3.23943709       24.96559799
  950      1      25.25461457       20.71881642        8.59231625
  951      1      10.40017648       21.56199707        9.24605287
  952      1       8.69460040        9.48641394       21.82467485
  953      1      17.99183422        7.49711218        7.46873924
  954      1       9.95384955        2.73276865       10.34090991
  955      1      23.67972254        8.03343160       12.76569244
  956      1      21.05556027       15.19816247       25.19265528
  957      1      13.49531500       21.71777450       27.00646189
  958      1      13.61701999       24.43927752        8.60255735
  959      1      15.17236430       15.98466981        9.84129981
  960      1       9.62426219       13.50297345        9.81391861
  961      1      21.03566349       17.11450107        8.91345894
  962      1      26.93234311        2.38250741       12.24566893
  963      1       6.07039057       27.11024668        6.81620002
  964      1       8.65369131       14.67256774       11.67018605
  965      1       8.09511647       20.85224357       26.53382890
  966      1       7.38835114        8.90421136       15.45280276
  967      1      18.34387793       11.28709785        0.76317317
  968      1       4.53364017        7.47336693       20.75839136
  969      1      11.77974986       13.19182402       18.54752358
  970      1      26.38572415       21.25187511       19.56541146
  971      1       0.33503148        8.06390785        6.48388371
  972      1      18.33924829       11.68878052       23.12540870
  973      1       4.63361130       22.93218178       17.61896016
  974      1      11.24113728       10.03393978       14.67688517
  975      1      25.12359936        1.50434681       24.05319768
  976      1      20.85135026       23.92962312       12.42836204
  977      1      25.91039400       12.29698532       14.72595933
  978      1      17.15358303       27.25014335       11.18638092
  979      1       0.89790222        0.65367433        0.57234790
  980      1      14.18218984       11.59496554       20.74128124
  981      1      23.16661574       25.92587476        7.76516762
  982      1      15.17729438        3.47560764       22.27936749
  983      1      24.23629304       13.48254111       25.84818805
  984      1      12.88674857       17.41611832       18.69341299
  985      1      25.81487190        4.86495114        5.78686151
  986      1      14.85726879        5.77218467       17.38703496
  987      1      11.56264069       19.88854801        4.56218019
  988      1       3.54583028        3.25511690        2.90147672
  989      1       8.61468417       17.36078718        5.43775264
  990      1      25.79041194       13.60410592        6.52111018
  991      1       4.05456505       23.64994238       23.08706796
  992      1      17.72002984       16.95103173       16.80269361
  993      1      13.28537204       25.51739531        6.27619267
  994      1      22.33787438       13.33299264        4.75814346
  995      1      24.36022049       18.60686898       13.93491599
  996      1      19.27767474       25.27094051       20.90710436
  997      1      12.24044638        5.31797734       12.55100470
  998      1      14.30255501        2.18342413        1.08656969
  999      1      18.02564886        9.66756706        4.71774380
