run_id:  1001  total_energy:   -3028.379253615956

  1000 atoms
  1 atom types
  0.0   27.664  xlo xhi
  0.0   27.664  ylo yhi
  0.0   27.664  zlo zhi

 Atoms

    1      1       0.02597889       18.75993445        6.75869982
    2      1      14.62910311       18.57242032       19.61069380
    3      1      19.84605192       15.24309784       15.87187579
    4      1      17.39542146        8.34913943       17.15696853
    5      1      12.82107414       12.81791654       13.22615901
    6      1       8.84911721       16.65128680        0.74168039
    7      1      13.86604232       23.98225049       26.99390709
    8      1      24.93254913       22.94136450       12.36010501
    9      1       0.65781586       26.02185928        6.09774628
   10      1      26.74397606       27.53169283       27.08761660
   11      1      26.24492013       24.02953810       26.52878863
   12      1      24.73127764       12.82059575       12.65542092
   13      1      11.75192743       16.38711954       11.38534979
   14      1       8.77218216        2.82822791       23.39157084
   15      1      22.29709243       12.22591186       22.82837348
   16      1      15.99882601       21.58366737        7.97731717
   17      1      22.71442769       17.48929645        5.25539312
   18      1       5.64022655        9.39925608       26.31636264
   19      1      25.01555683       10.29483289        5.07781036
   20      1       8.65864684       12.93900433        1.27630750
   21      1      25.63397819       18.10284750        1.78340824
   22      1       2.99414818       23.65204403        7.18101332
   23      1       4.99194397        2.31754853       17.97836544
   24      1      10.39922263       14.36645270       23.85794534
   25      1       0.36665348       14.92927703       19.05838401
   26      1      27.41634760        9.48735261       21.20005709
   27      1      12.91462244       18.16644850        3.63079984
   28      1      22.33770537       19.11220678        9.32352792
   29      1      17.73769783        3.21409647       15.56089008
   30      1      27.30138779       22.38652085        5.59434045
   31      1       4.82190917       21.76707909       14.25095166
   32      1      16.67227925       18.82806589       22.83989065
   33      1      16.95226990        2.93450231        3.36173782
   34      1       9.67455264       16.73211894       12.32809152
   35      1       8.23155407        6.08514445       12.54178933
   36      1      15.73754032       27.19245546        3.59836169
   37      1      10.63828477        6.59000829       20.11493731
   38      1       7.06096646       26.92315798       23.02379562
   39      1      21.88976430        2.73818804       18.08141531
   40      1      10.72064484        0.53640379        1.29662670
   41      1      10.81105890        7.14705311       27.65328518
   42      1      10.63537345       25.35662011        8.65119622
   43      1       4.51431708        0.67225584       11.50144615
   44      1       8.91208629       18.78100342       23.15331440
   45      1       1.35922556       13.16820317       26.41573029
   46      1      23.72098173       11.00472131       19.49557680
   47      1      14.36675622        7.67178683       14.47479247
   48      1       6.61944408        5.00224940       25.70617609
   49      1      14.98035699       20.37438509       25.92191376
   50      1       9.77490421        4.83670222        8.97304834
   51      1       1.38919813       18.51204371        1.06458652
   52      1       7.37115537        2.40802010        1.29311503
   53      1      24.49540574       19.93672156       22.67393973
   54      1       0.33578097       21.47778045       13.32642147
   55      1       6.87956373       21.94315913       11.06305019
   56      1       4.66087115       24.47022555       19.59749044
   57      1       1.88713629       18.82913206        3.34598094
   58      1       5.76667254       11.74593125        9.30391150
   59      1      27.18967606       11.73452678        7.36272996
   60      1      23.34519007        4.41206354        0.21412521
   61      1       2.40104715        3.06171062       15.26104342
   62      1      18.78944588        0.72213924       23.30815697
   63      1       8.12730820       11.67308863        9.24560071
   64      1       5.43290313       27.57325095       17.40681209
   65      1      20.42325114       21.76808301       21.55026240
   66      1       7.08350668        5.13098794        3.62053843
   67      1      15.95357199       13.21546695       15.94164404
   68      1      24.44492542        7.22323685       23.55034056
   69      1       0.19073642       12.29011306       24.60850295
   70      1       7.17584175        2.98628943       18.44805269
   71      1      10.38806708       17.37894250       14.60848995
   72      1      13.73982095        9.71806390       17.34903619
   73      1      13.30374327       21.09268795        1.56040887
   74      1      24.84429568        3.52125113       14.79906023
   75      1      26.36202689        1.84696839       15.78316167
   76      1       2.66922470       10.67586752       10.64209887
   77      1       2.65254691       23.58772324       11.14803015
   78      1       7.69695703       20.01032939       12.16455858
   79      1       3.85611012       16.83560945        7.78936625
   80      1      23.75168934       26.56658441       16.59340052
   81      1       6.99659116        7.53804634        9.03545732
   82      1      18.81535091        3.99861298       21.36008106
   83      1      11.03598626       18.97495510       26.25070366
   84      1      14.75687649       27.41231777        5.81353759
   85      1       0.71102598       21.97216712       18.56782015
   86      1       5.67184220       17.97677138        2.76068557
   87      1      26.83000584       25.13226009       19.91419662
   88      1       9.55951183       14.98880893        8.23565259
   89      1      25.28648069        3.78558306       24.48414285
   90      1      24.21908395        5.80573527       15.86635283
   91      1      11.77541417        4.50214061        2.42342131
   92      1       0.55995637       12.58317958       15.64575397
   93      1      20.01887803        0.35831472       15.59211875
   94      1      16.10461393       10.25303311       20.34261741
   95      1      22.82627096       14.22276236       24.05557910
   96      1      17.72394746       20.81950935       23.70987808
   97      1      10.11819461       19.77954932       19.79815161
   98      1      12.97898220        9.46923907       11.21855832
   99      1      25.51975545       10.07562294       15.27225392
  100      1      27.53330038        6.23211928       26.30065190
  101      1      22.77220331       11.60879244        8.03265013
  102      1      15.03069261       26.03786579       23.99117180
  103      1       8.99761960       14.69168013       16.85375938
  104      1      18.90904169       22.89925866        5.06377039
  105      1      17.88639505       26.50927497        4.11200006
  106      1       2.92478977       25.46622992        5.76973739
  107      1       9.69086741       10.01190779       18.13864999
  108      1      11.20389507        5.34954938       22.12387818
  109      1      23.76866133        1.41650747        2.61245990
  110      1      16.04602812       24.51971951       27.66390550
  111      1      13.85197232       13.62135534       19.48660245
  112      1       1.78801965       15.69438336        7.48109564
  113      1      11.10029177        6.91929249       16.51646483
  114      1      12.87051252        7.74677422        0.96905400
  115      1      23.81642411       24.45059804        9.46164371
  116      1      17.20127658       14.58927793        5.21491993
  117      1      19.85008814        4.87633340       25.93675526
  118      1       8.68175651        2.38202899       14.72253984
  119      1      18.94358428       18.94667781       13.05532156
  120      1       8.90546049        2.12542425       17.05905379
  121      1      12.55774172        5.88541197       14.81314732
  122      1      18.13945858       15.15715621       27.07155760
  123      1      26.95637561       14.25513066        4.59749636
  124      1       5.82676691       19.24062434       16.48814508
  125      1      14.47851531        6.79052919       21.03795743
  126      1       2.63014087       12.35034587       20.88669443
  127      1      19.64753989        6.30134885        3.73778545
  128      1      11.12203054       13.92334082       16.26564762
  129      1      20.92579505       16.69171610        6.59013018
  130      1      14.92000535       22.21778962       20.97233647
  131      1       5.07497505       11.01144381        7.08696336
  132      1      14.91613208       17.21121304        6.21128318
  133      1      25.16044797       25.21136030       15.23883848
  134      1      16.85799997       22.74578778       22.47488503
  135      1       5.23612992       23.20750983        7.65019530
  136      1       6.06465830       20.98470698        0.33901713
  137      1       9.50821769        2.01446008        4.96640836
  138      1       3.01556932       19.45117522       27.31917747
  139      1       6.28518945       15.01821759       11.21420503
  140      1      13.00558472       15.81658146        3.84495503
  141      1       9.60330900       24.48026875       26.11483409
  142      1      26.86702200        0.67097485       13.77277518
  143      1       9.16278553        9.69308863       25.60863745
  144      1       3.89740806        9.01585196        6.87371808
  145      1      17.18219856       23.47073678       10.81191746
  146      1      21.62650992        8.60290568        1.01943707
  147      1       1.83384256       21.87932426        5.95216385
  148      1      11.45167723       26.90696513       10.26843549
  149      1      13.75864402        1.83419183       11.98388319
  150      1       7.36017807        1.18034734        7.91082505
  151      1       0.39964388       12.15411825        0.60661844
  152      1       0.09779220        9.15054708        2.40212711
  153      1      15.44429831       20.61783958        4.74438289
  154      1       7.79941521       25.62224063        3.64831424
  155      1      14.07905639       14.38086204       23.39493627
  156      1      24.70297277       17.66971591       19.20887186
  157      1       2.07554854       24.89374621        1.70460023
  158      1       8.73227602        8.29385016        5.43759931
  159      1       1.27462579       14.16403989       12.24814931
  160      1       2.11825118        6.90575580       26.37980142
  161      1       4.26653218       20.59678954       17.92668119
  162      1       5.51227884       16.35761945       18.47127765
  163      1       5.07580078        1.14405015       13.78607271
  164      1      27.45662516        7.07746709       14.34063719
  165      1      13.34858575       14.86128585        8.55961731
  166      1      19.42347920       23.58341341       26.71821051
  167      1       5.83646957       15.25855855       14.90375322
  168      1      11.02198927       18.62175108       17.92849337
  169      1      14.67006730       18.27858665        9.85513412
  170      1      26.61025055        7.24371184        3.01438507
  171      1      11.50300693       24.51361017        2.76644477
  172      1      20.64451608       15.34374844       12.08468495
  173      1       7.36081147       17.96974023        9.29201549
  174      1       1.73336689       14.48482232       21.28362058
  175      1      16.34780236        9.18723013        6.29478779
  176      1       2.24416466       21.12782771        3.69636080
  177      1      18.12013743       13.58575303        8.55907194
  178      1      25.71615587       23.31124150       22.57804169
  179      1      11.51529063       18.22639799        8.04251140
  180      1      25.54390110       18.08019604        4.06727303
  181      1       8.27527049       25.22933002       19.00321394
  182      1      22.53496136       21.03533348       18.70086309
  183      1      15.39580855       21.75631617        2.75697909
  184      1      21.11949221       26.86321973        2.96930049
  185      1      24.97598629        1.47473115       19.39197212
  186      1      21.92697340        8.33196191        6.15888440
  187      1       0.82886877       23.34538890       26.24530570
  188      1      12.56013326       18.42239273       22.56861570
  189      1      17.44789950       22.58971969       27.41229065
  190      1      14.91791108        5.54883194        6.07989457
  191      1      14.27562371       25.55979464       12.35389621
  192      1      10.81017346        3.08563850       22.00393580
  193      1      25.73986169       25.25251549       24.08071821
  194      1      21.79166536        0.96847343        1.62769723
  195      1      10.26513508        3.54887554       26.72858757
  196      1      18.03516810       24.71504396       17.48050994
  197      1      20.90235344       20.77372891       17.03700965
  198      1      16.56164527       25.35117322       12.24562774
  199      1       3.41050595       26.90831717       16.44611860
  200      1       1.24533408       18.07657120       10.18314807
  201      1       3.98667355       15.93974425       26.20417291
  202      1      16.02829784        5.78652357       19.39683450
  203      1      22.03827195       20.53971065       11.24312068
  204      1       3.76026328       24.85505041        3.46420113
  205      1      18.28202398        5.71526149       12.34624467
  206      1       9.15709312       10.58879993        1.87373553
  207      1      26.80280234        5.51221754       21.30686044
  208      1      26.26991642        7.92570757       18.31932646
  209      1      26.87751186        4.87477410       13.20390105
  210      1      12.94061270        8.98650677       25.10180378
  211      1       4.69870719        9.28916388       22.36027448
  212      1      24.78300822       22.19782240       26.76032987
  213      1       0.17124799       17.86386248        4.68737611
  214      1      23.16984412       16.70708853       20.94100828
  215      1      13.18691497       25.92784021       18.13064679
  216      1      14.13470677       15.27696408       21.17907672
  217      1      26.25972063       15.97442082        0.99037914
  218      1       4.87124344        3.19284877       26.41760245
  219      1       3.80883726       18.62580671        6.34323393
  220      1      20.48239609       10.71784784       23.77841896
  221      1       9.90080652       22.35722740       27.24711366
  222      1      11.37884253       26.01144368       25.47880213
  223      1       1.73782666       12.30071854       13.61122965
  224      1       9.78866198        8.86754404       16.10680970
  225      1      17.30421177        3.78614740       19.56732080
  226      1      16.54655587       11.42252540       12.90464572
  227      1      25.54511285       14.40168193        2.60772557
  228      1       6.14897973        5.97965959        0.12545825
  229      1      13.65312652       12.06806298       22.98922234
  230      1      26.69079872       20.19505630       21.57411188
  231      1       7.62380291        5.61582361       10.25992823
  232      1      22.61397903       19.77295307       13.45748696
  233      1       4.40309950       12.16957301        2.34348536
  234      1       1.11530714       19.03227252       21.62417940
  235      1      21.39133559       16.12815303       14.12192316
  236      1       1.80651928       27.06113737       18.23936138
  237      1      17.05274353       24.92561955       23.60820227
  238      1      20.04998706       24.01677163        1.30447261
  239      1      14.20731749        6.10353199       11.43900055
  240      1      22.30238944       25.23351631       17.97430087
  241      1      14.67323249        9.96704605       23.67483327
  242      1      19.54918855        7.84023386        5.40896131
  243      1       5.40691466       18.68825835       23.73564374
  244      1      24.84419506        2.73464895        0.90777328
  245      1      12.16343301       12.83266004        9.41114255
  246      1       6.89156651       24.97778274        7.51378273
  247      1      19.00621288        5.07263502        7.13296269
  248      1      12.17878025        3.65782112       15.82835532
  249      1      22.53951048        9.81707998       11.62857209
  250      1       1.41492173       18.84635971       16.10966648
  251      1      16.08283261       14.15916122       26.59543392
  252      1       3.00493509        1.15298708        3.74896323
  253      1       5.17970351       13.11006879        0.26933989
  254      1       5.73415792       23.46796510       21.52494707
  255      1      11.83765397        6.84542622       25.47023097
  256      1       0.99020451       15.75711869        5.22400657
  257      1      24.27636594        0.30137652        7.86969581
  258      1      24.65355502        5.18490715        7.76308131
  259      1      15.48163490       27.58003912        9.57900034
  260      1      23.37660446       18.16433923        1.44055046
  261      1      21.13280287       19.95048163       20.30771809
  262      1      25.53214976       16.71070213       24.54000128
  263      1      24.89539377        1.25567729       26.64811475
  264      1      19.94523890       16.88867540       24.07778330
  265      1      12.82764316       18.71989759        1.44519412
  266      1      17.48563837       21.19334926        6.12087589
  267      1       7.57632322       26.66829683       10.76616189
  268      1       9.35294946       24.98606935       21.05770670
  269      1       6.93352189       19.95410762        8.21494566
  270      1       5.44157970       21.53235344        9.32617608
  271      1      16.37241055        3.67115039        9.44134837
  272      1       4.90952033       10.92455195       11.65406734
  273      1      21.78306618       12.01310367       20.41388751
  274      1      16.04938005       21.50699389       11.59359643
  275      1       0.01750209        9.83914982        0.12879139
  276      1      22.26079080        3.78825524        5.48462063
  277      1      17.81615770        7.25711245       19.15995596
  278      1       4.86768456       17.15208444       21.97271330
  279      1       8.91694120       22.95287779       10.54631851
  280      1      20.34762611       24.70083692       16.49751357
  281      1       9.64673514        9.64249102        7.11400132
  282      1      26.76930735        0.83559089       22.32634439
  283      1       2.00580353        4.98222474        4.26139718
  284      1      20.90944705        1.13389809       26.03648692
  285      1       2.61370258        5.85200465       17.65641375
  286      1      22.79728983        7.69414203       14.83644637
  287      1      15.50626897       12.61257345       11.14472822
  288      1       4.37502186       14.69326541       24.25958620
  289      1       1.44532890       10.30311466       24.31580457
  290      1      21.41725741       25.37306998       21.61879669
  291      1      10.38849042       11.23211293       21.56047080
  292      1       4.10124117        4.10409920       16.62302314
  293      1       2.86591205       20.63166635       21.72668433
  294      1      23.43327055       25.69864589       27.21591449
  295      1      20.69712810        1.01852508       19.43981747
  296      1       0.10036344       14.08661614       23.01669885
  297      1      17.84525119       17.54585138       21.24955714
  298      1      14.29054733       15.02971557        0.25557357
  299      1       0.54992180        8.44703244       23.32789131
  300      1       4.78024140       27.07939032        0.57597997
  301      1      19.35913240       25.32524262        8.55584783
  302      1      14.66944813       14.66140760        2.50413404
  303      1       7.24360270       11.05725630       25.64957234
  304      1      17.25397953        4.36496500        1.57247727
  305      1      19.96676072        7.16266069       22.61849241
  306      1      16.71826190       23.92941098       15.57360881
  307      1       4.08964669        9.92382964        2.04050907
  308      1       1.57303272       20.30801692        9.45488201
  309      1       9.47900171        0.83988999        7.05793823
  310      1      24.91943256        1.08560990        5.79928938
  311      1      20.13353041       16.94629930       18.11539902
  312      1       0.95658764        2.99615741       27.61783228
  313      1       3.10860464       10.98818747       22.78710974
  314      1      23.77036995       22.18232914       22.99794190
  315      1       1.38403917        1.66136544       18.76400377
  316      1      14.90591432       27.47362669       17.54636715
  317      1      13.22513622       21.42092074        5.42477769
  318      1      25.71478213       18.98066032       11.90071348
  319      1      24.64403926       18.46495462        9.76806491
  320      1       4.29565462       24.78301034       12.35576289
  321      1       7.77523466       24.34607870       13.63332556
  322      1      12.52526076       17.63859724       24.86383041
  323      1       2.04709203        9.34805491        5.52873330
  324      1      20.30768345       13.01375666       12.28493807
  325      1       9.91607066        0.72680951       19.94085613
  326      1      23.78994877       22.59753696        8.04526044
  327      1       8.36262138       26.47195346       12.85822229
  328      1      23.45148014        5.98538983       11.52148359
  329      1      14.83275297        7.71076659        5.21998631
  330      1      21.38982911       22.43544865        7.95264409
  331      1      23.77779725       16.26985266       13.96436788
  332      1       3.80318147        5.19209652       12.55351019
  333      1      22.55853622       18.78811009       21.81782696
  334      1       0.67712668        3.78624241       21.90572254
  335      1      11.02159864        2.23265496       14.25992540
  336      1      26.35510854       21.20351250       11.74963790
  337      1      19.70840837       20.60001890       11.47120071
  338      1      24.84840061        5.17789775       22.61449382
  339      1      19.88141456        4.38969831       11.02279841
  340      1      19.04818986       19.71566392        7.17781918
  341      1       8.75389648       13.06421588       13.41708585
  342      1      11.45241091       11.05006928        1.93230360
  343      1      18.72335930       19.17450533       27.06265667
  344      1      26.87172306       15.89713271       15.43505583
  345      1       3.53411740       25.85478573       23.96886465
  346      1      10.08806579       21.99253917       19.16719015
  347      1      24.09784176       10.93130002        0.85811575
  348      1      13.47919773        5.12781801       25.07667551
  349      1      25.88802122        8.62042409       13.48143655
  350      1      26.25009556        9.58627445        6.92965026
  351      1      18.22091613        1.13224260        7.28035370
  352      1      26.81786386       22.92501037        3.32440529
  353      1       8.10025017        0.29676057       26.39447383
  354      1      12.94700358        2.31262681        8.24783570
  355      1      19.75673767        8.98206284       25.46115178
  356      1      16.10567139       14.90285800       24.34494744
  357      1      19.75664543       12.46417735       10.03154046
  358      1      18.18271413       13.27538093       19.17077153
  359      1      22.62083981       18.81432689       25.63770210
  360      1      25.92835429       25.32272072        9.90111958
  361      1      15.12796777        4.38760082        0.66391086
  362      1      12.37255332        3.03988572       25.69213574
  363      1      10.16634484       20.39565385        2.74164887
  364      1      26.25370695       24.83229347       12.04655248
  365      1      16.17751431        1.15281834        2.09391202
  366      1      19.01424958        0.73944201       17.79203550
  367      1       6.61686505        6.75213331       24.02291561
  368      1       6.63773459       15.70366426       21.70096199
  369      1       8.38077711       25.88112938       27.55024294
  370      1      15.44417608       20.07766973       18.05233560
  371      1      10.84823858       27.49506173       23.69105894
  372      1      26.94195551        3.73340480        1.46539129
  373      1      23.16581021        5.74082749       17.99960137
  374      1      14.38597782       12.59706214        3.47562828
  375      1      16.83523695       15.46570174        2.98571645
  376      1       6.21300175       14.49718908       19.72087552
  377      1      26.12580951       20.50437882        6.43384211
  378      1       9.04753127        8.35937888       19.78686539
  379      1       3.96134716        7.34427716       13.58328308
  380      1      27.04977782       12.80107182        9.50599729
  381      1      24.65042511       19.94029324       18.28730561
  382      1      12.73296366       22.30858993        9.42726309
  383      1      13.01478349       23.69928115       21.30267127
  384      1      23.93098713       10.49295794        9.80458890
  385      1      18.11185186       11.37485568       20.77097208
  386      1      14.23787816       20.61203655       16.08731036
  387      1       5.82835925       19.70336247        6.19960807
  388      1      27.05828940       19.76600620        0.82577740
  389      1       4.13666283       17.76501511       19.87381398
  390      1       1.06232411       10.93840225       17.34509351
  391      1      11.10815669       22.28819081        1.73438976
  392      1       1.57987582       17.63214395       23.50269213
  393      1       3.76023396       27.27015827        7.11166647
  394      1      26.72856763       21.58958940       15.25592083
  395      1       7.38447327        0.44271486       14.26391430
  396      1       4.54669569       27.18261494        3.02873108
  397      1       5.52068971        3.51554322       13.08731101
  398      1       5.62523721       15.32883769        7.33047703
  399      1       6.31298427        0.04807242       20.90431136
  400      1      27.05537012       17.92038875       16.56299426
  401      1       8.98141237       18.50506102       10.91226832
  402      1       7.90305820        1.30277244       10.21510722
  403      1       1.81361415        4.17840232       13.19836397
  404      1       5.68113118        3.32246016        4.05594351
  405      1       7.41830121        8.25492523       13.01971116
  406      1       1.05875588        7.47435603        8.67296036
  407      1       2.71366702        9.66821486       16.10976938
  408      1      25.30682231        2.23947747       10.42228155
  409      1      19.31785524       26.81945086       10.38280230
  410      1      18.40256624        2.71368298       10.48258306
  411      1       7.57572601        5.38519971       17.89638840
  412      1      18.32152384       17.21050394       25.82147831
  413      1      11.85815259       10.88069554       18.33572456
  414      1       6.15630127       25.18769307        0.21592837
  415      1      14.48064392       21.27264430       23.85882390
  416      1       3.08033873       15.61907085       12.24444528
  417      1      12.21396804       14.23122074       27.12804997
  418      1      21.65979484        1.56855747       10.67778468
  419      1      22.95060972        0.00405036       12.91847824
  420      1      10.70447428       26.43576917       12.67409956
  421      1       6.60039632       10.53544062       21.76905834
  422      1       0.62043973       12.43213374        4.11495066
  423      1       7.74587916        9.77807465        3.80789499
  424      1      19.62641812       23.30517627        9.81229995
  425      1      20.72095213        8.45293636       10.68529299
  426      1      22.38773356       24.12505215        1.01836991
  427      1      17.24977490       20.75389673       26.01462928
  428      1      12.73844632       18.52093557       11.18951932
  429      1       3.43353356       25.09166286       14.75792931
  430      1       5.85409026       12.99155772        4.04128058
  431      1       7.41138858       13.01455767       26.96086941
  432      1      24.90643027       22.91757539       14.62234292
  433      1      22.84981397       22.88642503       11.20891657
  434      1       3.55976380        3.31670313       24.39974723
  435      1       0.71273121       22.85759656       16.42786703
  436      1      21.06546939       25.76553207        6.86918605
  437      1       8.43075169       24.97378449        9.38864614
  438      1      15.96126079       23.77320879        8.75191376
  439      1      12.97222791       25.38879684        1.12025486
  440      1      20.71493218       13.12030817       16.66895762
  441      1       3.83734542        7.92894917       17.15134237
  442      1      17.26417856       25.17113448        7.45483793
  443      1      17.30867827       15.80598126        8.72202018
  444      1      10.10695597        5.07705649        0.84178440
  445      1      15.23274888       14.92229036       11.83079161
  446      1      11.02339525        9.08342974       12.54244343
  447      1       4.37128350       22.29996887        3.79998223
  448      1       4.94150230        7.03798435        6.02505904
  449      1      24.87353801       19.00874267       24.80395200
  450      1       6.46374410       27.36162261        4.37745337
  451      1       9.41672396       27.39723638       17.73269185
  452      1      27.55567563       26.70977887        4.05070163
  453      1      19.63125824        9.32190228        0.06136353
  454      1       1.93878625       22.87481109        0.54806490
  455      1       5.92887272       10.84036694       19.50373218
  456      1       0.55992920       21.63067245        2.01526557
  457      1      17.30190817       11.96067094       17.32226980
  458      1      11.19452433       24.30491366       13.69513414
  459      1       4.63909299       15.23476257        0.69481089
  460      1      22.03245921        3.96479899       12.17169984
  461      1      20.14698840        5.55729036       15.37760560
  462      1      19.80744378       12.87225371        1.86785393
  463      1       4.37721335       11.45332339       15.75727301
  464      1       5.27628200       27.52449150       24.48254189
  465      1      13.08345509       15.11641560       12.92784710
  466      1      23.11880518       22.77482585       25.13845050
  467      1      17.09986304        9.29430406       11.95275820
  468      1      24.60009472       20.21369943        4.69307564
  469      1      21.85396391        2.64484451       22.69313405
  470      1       7.75348435       16.40574736        7.59070563
  471      1       5.34512159        6.86833153        3.70730071
  472      1      25.61991215       11.67418004       25.06073759
  473      1      22.86224543        1.62985288        4.86691446
  474      1      22.50114318       11.99668202       15.41817360
  475      1      27.54916475       21.92467440       22.96132366
  476      1      11.43429680       21.25887973       25.89792175
  477      1      15.72693892        2.25944208       20.24419067
  478      1       7.73545357       11.43494960       18.14146363
  479      1      22.79672735       12.31939364       27.22737640
  480      1      11.84158798        1.29457864        4.51926382
  481      1      12.21098513        4.60440989        8.35033914
  482      1      22.31889462       19.81551262        5.20711132
  483      1      14.48334526       23.03046095       15.50284381
  484      1       6.71034736       14.43825625       23.62870102
  485      1      17.89153213       19.15451104        1.64447561
  486      1      18.70070589       14.97338603        1.71500467
  487      1      24.63759832       25.00141553        6.03503705
  488      1      19.43245726       22.25940224        2.88341153
  489      1      16.11690791        4.84543477       11.65965789
  490      1       9.27029610       17.14207125       16.82581708
  491      1      12.17932798       15.77940103       15.11999702
  492      1      11.88119125       20.34439845       16.45203593
  493      1      27.22443242       15.75405145       13.01911048
  494      1       3.21127153       23.00071534       15.72591212
  495      1      19.09386308       26.11721490        2.12335598
  496      1      17.74457574       22.75466014       18.64890957
  497      1       0.05857851       16.93344381        8.44703027
  498      1      23.48204932       25.11791904       24.95726089
  499      1      20.16808235       27.11902705       24.65549571
  500      1      24.60780157       15.48148672       15.94976071
  501      1      18.88684618       13.35348764        6.32427220
  502      1       6.39060482       21.98574535        2.38470146
  503      1      18.15929711       14.04092541       23.45151655
  504      1       1.68745810       19.35366734       13.61866623
  505      1      22.39086596        0.33990770       15.24756330
  506      1      17.89932984        5.37762140       14.72867703
  507      1      16.04178787       10.05533941       17.98866725
  508      1      22.05567837        6.74778184        9.73749621
  509      1      12.89771951        9.36885821        2.67472132
  510      1      13.84554157       27.55557373       13.53833125
  511      1       3.02703075       15.59186729        4.17056872
  512      1       2.48249785       16.43746680       16.14932708
  513      1       8.66830390        8.08976232       23.82786248
  514      1       7.92082619       16.83278357       26.25625764
  515      1      17.85995145       26.59498684       22.13563138
  516      1      12.70199640        4.77513981        6.07932572
  517      1      13.18479358       23.71736203        4.66692382
  518      1       7.08640840       20.17763296       22.99272806
  519      1       1.36838169       10.17253884       12.54858822
  520      1       9.99178907        5.52467344       18.05984788
  521      1      18.61707130       25.43053272       25.40798321
  522      1      23.21574860        2.01208405        9.04072576
  523      1       3.95501776        5.52227806       10.17634753
  524      1       3.09763673       15.92262480       22.69741204
  525      1       4.10078950       12.22948914       13.53200233
  526      1      16.33242006       17.26970427       24.61578169
  527      1       2.51139357       26.57000909        0.08557446
  528      1      12.87612453       25.99089940       20.59066717
  529      1      20.92948610       18.41433527       14.35825044
  530      1       3.90691245       21.81349462       27.17236983
  531      1       4.65494771        3.32391772        6.16632691
  532      1      14.81078277        8.24097991       12.19503107
  533      1       7.31244260        7.76246065       18.15707699
  534      1       6.48671003        3.33532202        7.57242831
  535      1       4.87578657        8.19368397       24.39075716
  536      1      14.27604514        3.44903856       16.80803638
  537      1       3.23879945        3.69107295        0.49956456
  538      1      23.74880494        6.77510837        3.08276949
  539      1      18.58066414       21.16978470       17.05716695
  540      1      21.09604485       22.64330916       15.38283045
  541      1      23.71736493        3.73596447       19.34818744
  542      1       1.19067812       23.83140031       20.12531127
  543      1      12.88803750       22.99845244       23.61130478
  544      1      13.40450045       23.61652527       13.37497122
  545      1       2.62303684       25.66308399       20.00798459
  546      1       3.02591778        1.58547680        6.09859075
  547      1      24.68097898       11.71356610       22.85777368
  548      1       7.95212087       18.91403560       19.90807059
  549      1      10.88037973       19.43575916        9.94976879
  550      1       4.66623518       22.19029760       24.86951996
  551      1       3.40217506       12.61314127        6.72147037
  552      1      23.89070209        2.38791992       12.66768986
  553      1      17.62512057        6.37956731        2.53207686
  554      1      18.55077376        3.10375141       17.71738107
  555      1      17.55984558        1.82502357       25.19701521
  556      1       6.77683928        3.23497077       22.24127336
  557      1      18.98602301        1.64885606       27.30670846
  558      1      17.79057463        7.94975407        0.80114490
  559      1      23.11599101       23.26942714       19.29446912
  560      1      22.79607806       25.30695227        2.89968126
  561      1       0.11531120        7.41402687       20.13323973
  562      1       7.72506915        4.75688290        1.43441981
  563      1       0.76896861       23.77793031       12.58190025
  564      1      20.28308010       16.72080135        2.14882814
  565      1       7.54479400       11.51870800       12.06836411
  566      1      26.84273063       24.28648555        6.71197454
  567      1      26.70270115       13.09125941       19.75448264
  568      1       0.85189776        2.14330756        7.11105188
  569      1      17.36814652        3.28421797        7.19499529
  570      1      27.40195510       25.01734224       16.02275931
  571      1      20.89321442       22.03796589       25.61100459
  572      1      13.69750607       14.88777867        6.12387706
  573      1      16.91244299       20.35669745       13.49794604
  574      1      25.52566415        0.30473787       17.42707457
  575      1       2.60847210       26.98717642       22.10505671
  576      1       8.90315594       18.79919952       25.51765078
  577      1       6.26643822       24.41437136        2.37326048
  578      1      13.12686008        7.47517031       17.72361480
  579      1      14.56600838       19.62211656       21.86972502
  580      1      15.71007804        8.52878892       21.96317494
  581      1      27.18135956       21.58220553        9.61192399
  582      1      21.23370860       18.76297859       23.74535909
  583      1      23.20652011       23.76760886        4.62403861
  584      1       6.65980441       21.06771774       20.77838409
  585      1      24.44044597       15.96128468       10.12300239
  586      1      20.64264421        6.86834197       24.86421914
  587      1      14.64554489        2.02736429        9.76190186
  588      1      25.87155823        5.80333914       11.16209365
  589      1      13.55758797        9.81472656       15.12423602
  590      1      17.20647654        4.75218661       22.96939086
  591      1      21.35270516       20.22844268        7.36735062
  592      1      18.68271680       16.79676348       12.07201290
  593      1       4.89231896       14.38822243       12.99506580
  594      1      11.07015247       14.74810600        3.12413428
  595      1      20.90098580       20.34353958        3.27406712
  596      1      17.83843142       27.65035138        0.74584582
  597      1      25.36876271       26.81217761        4.65992877
  598      1       0.20702141        4.97417613       17.52358052
  599      1       7.42692174        4.36899888       14.11153855
  600      1       8.90231331        4.42765632       25.07347985
  601      1       7.54828476       14.21237428        3.03651798
  602      1      11.46198024       16.12036466        8.97780513
  603      1      12.04392674        1.88217143       23.65284172
  604      1      17.56509842        4.20924285       25.20702390
  605      1      13.72433564        6.26655366        9.20293463
  606      1       3.55979208       12.23437228       26.51047873
  607      1      17.59189546        1.65230188       12.38536544
  608      1      27.13963503       17.15727122       18.85603146
  609      1      27.62341236       26.66564472       25.06847705
  610      1      16.24887199        6.82763912       15.75695357
  611      1      25.84874744       26.42279527       21.71252957
  612      1       4.48650964       12.71560564       19.42118177
  613      1      19.49356752        9.17181675       16.40478433
  614      1      25.37132601       23.28772024       20.10807550
  615      1      11.52775835       26.54243855        4.79443073
  616      1      18.03738914       10.46452263        9.97146744
  617      1       2.05567916       19.45555283       25.11329949
  618      1      13.67500033       26.15292705       10.17084006
  619      1       9.00901431       20.82282991        7.33424889
  620      1       1.98473102       19.93583279        7.15285555
  621      1      10.71892032       19.85938995       22.19779807
  622      1       6.89038240       22.82633483       16.95605112
  623      1      11.97558460        9.48518601        7.17554715
  624      1       5.78852324        0.92189533       26.67244430
  625      1      16.78335927       15.90520937       13.29174016
  626      1      15.29119890       11.34085484        7.11725048
  627      1      22.65496010        3.91875010        7.80428943
  628      1       5.83653980        4.26051107        9.59790443
  629      1      15.95000070       16.64339395       20.22094626
  630      1      10.63565165       22.02812735       23.40228132
  631      1      16.16844991       17.68566384        2.23163443
  632      1      20.59800282       13.58443482       19.08712372
  633      1      24.37672219        6.39173408        0.75378665
  634      1       0.86110619       14.70139206       16.67432079
  635      1       1.27659379        2.84186319       24.02955744
  636      1      17.86853473       21.98750584       14.90282539
  637      1      16.90597768       26.45095388       26.67238252
  638      1       5.67483394       17.64943153       25.98974358
  639      1       9.07356489        8.83549229        0.13173977
  640      1      23.60065144       22.09805424        1.18970606
  641      1      27.49848006        3.93140226       25.58303095
  642      1      11.02263817        1.21151718        8.91057907
  643      1       9.18979730       15.10403390        4.51426483
  644      1       4.61393146       20.11406171       20.14793399
  645      1       1.38301858        2.71285134       11.15172742
  646      1      14.49948777       27.11858243       21.88455535
  647      1      19.32377376       13.75557713       25.53787912
  648      1      21.33044606       15.77784775       27.46279217
  649      1      12.31517601       15.22398703       24.87856181
  650      1      21.42936966       18.41238657       16.70244332
  651      1      20.11882209        6.53360082       19.07309390
  652      1      26.91372826        9.65901667       11.70928124
  653      1       5.23259782       14.01217145        9.28559306
  654      1      25.29520171       12.03951918       18.19884205
  655      1       8.06928774       20.86374006        3.61612224
  656      1       2.03442006       12.79286731        2.27158000
  657      1      11.96704753       13.03650310        5.95695251
  658      1       6.66678131       16.04567601        1.82906616
  659      1      26.19733324       20.37259433       26.28508462
  660      1       7.86872929       22.66876888       19.07358201
  661      1      16.26005569        7.55863457       26.68040239
  662      1      19.39789865       18.53938110        3.35759158
  663      1       0.93772049       16.24253240        0.74218878
  664      1       1.24004308       25.39228812       14.18604437
  665      1      17.15409680        9.80101254        2.40884157
  666      1      14.95187745       14.52796142       17.56265250
  667      1      12.03020479       12.61541275        3.60637052
  668      1      13.01630365       19.87601403       12.99336864
  669      1      21.14725754        9.08933987       22.09361109
  670      1      20.74209517        4.98512034        8.85022500
  671      1      24.07340977        7.55433562       19.21243641
  672      1       8.57757217       11.76021308        6.82642817
  673      1       7.54618726       13.62374665       15.30577822
  674      1      16.40618961       27.30370279        7.48588479
  675      1       1.55440382       12.82175656       10.25058187
  676      1      25.69054409       11.54614461       10.93252821
  677      1       8.23015695        4.81404962        7.05839434
  678      1      20.41251383        4.71930806       17.59236437
  679      1      10.44588703       18.60137746        0.95791031
  680      1       1.92409344       22.76200886       22.06935696
  681      1       3.38720444        2.46689456       19.76687319
  682      1      12.65031575        8.61768317        5.02434244
  683      1      19.93052696        1.96228506       21.61414870
  684      1      15.32669022       23.83635101        3.78133970
  685      1      23.30055900        9.74735189       15.91523084
  686      1       2.30498212        8.83075166        3.19404109
  687      1      22.45628924       10.16906721        2.58007812
  688      1       4.22941562       12.30786734       24.29876149
  689      1      20.75316921       26.25264569       12.36122829
  690      1       5.28371212        8.60105399       18.87838688
  691      1      16.87377825       15.39546580       18.48852806
  692      1      20.96803850       10.23622722        7.22556662
  693      1      15.62027971        5.29305219       26.21348147
  694      1      18.98805622       17.82085161        5.76982736
  695      1       1.88867792       25.50688046       25.68972612
  696      1      21.35840797        6.53145458        2.16179421
  697      1      23.53706948        8.15929548       27.12695555
  698      1      19.02622710        0.67772678        5.16236295
  699      1      20.99162059       11.79280535        3.65896225
  700      1      23.49808993        8.31853301       21.64171422
  701      1      21.15266114       27.57282768        5.20776596
  702      1      25.05670078        8.74812194        8.74214106
  703      1      10.71080245       23.10893988       21.07160302
  704      1      10.51792085        6.74831579       12.06902703
  705      1      23.12711175       21.52604356       14.95689274
  706      1      19.26763683       15.84386482       22.04881607
  707      1       0.23434446        3.12391688        3.57901166
  708      1      10.77888878       26.76154359       21.40483416
  709      1      14.99519397       19.31489693       14.33476937
  710      1      16.42302799       27.59511675       20.59643445
  711      1      23.31991731        4.45759945       25.61782429
  712      1      14.52122682       17.39100467        0.43939562
  713      1       8.70347443        0.56026496       24.12072973
  714      1       5.45193699       17.70736152       14.60251722
  715      1       2.44016344        6.49701820       19.92758332
  716      1      16.29931930       20.08224979        9.78838712
  717      1      10.16415638       18.98058650        6.30562684
  718      1       1.38157256       27.56631967       13.39399268
  719      1      11.32786380       10.70333693       25.46959674
  720      1      25.49220767       19.58066788       15.95785721
  721      1       1.99052788       20.02431462       18.03804073
  722      1      19.14702910        2.61031019        3.81635180
  723      1       3.72626573       10.09733812       27.35765560
  724      1      24.03291653        4.80586896        4.29399754
  725      1      12.28996431       11.82623485       27.40998347
  726      1      10.08201970       13.37112101       20.25893993
  727      1      23.33958051        8.83950712        4.29527170
  728      1      13.70928222        1.93111308        5.96876715
  729      1      23.42927251        7.29692802        7.92640547
  730      1       0.11846367       16.05508491       24.36899168
  731      1      26.72182689        2.70303527        5.62233981
  732      1       0.40000375       21.21544930       25.12936038
  733      1      26.29347899        4.40694011       19.31285230
  734      1       7.22580391       17.93375081       17.85954730
  735      1       1.48132595       11.55899413        6.00782970
  736      1      19.23489434        2.07607773       14.20975237
  737      1       7.72630802        1.85425411       20.40718646
  738      1      20.97097406       14.35018054        6.47601262
  739      1      12.89622581       11.54447594        7.49610185
  740      1      13.76878041       18.66985466        7.78320777
  741      1      23.18511521       14.52593792        2.87725245
  742      1      19.13107952       11.49219280       15.95280171
  743      1       8.23729639       13.61663895       18.82327849
  744      1      22.93611700        6.78421162       25.25368018
  745      1       7.05055142       21.80250844       24.67871415
  746      1       3.36902541       21.35250671       10.62461458
  747      1       0.96827279        0.49829968       23.51574108
  748      1       6.06087484        8.74702069        2.51356390
  749      1       5.70886179       17.29602583       10.81107409
  750      1       9.99659536       26.22906387        6.53712050
  751      1      18.50586976       19.50726517        9.52124508
  752      1       9.21999259        1.73720326        0.06982113
  753      1      22.66253604        2.59596249       15.75942155
  754      1       3.76461502       20.28277391       23.85113831
  755      1      15.73751079        3.36472931        5.43377270
  756      1       7.12540638       18.85259896        4.41872703
  757      1      23.12966964       17.06547306       27.12266836
  758      1       3.81563349       20.25023764       12.69835226
  759      1      25.61602683        9.63737754       26.46722985
  760      1       8.80376084        8.96001910        9.38333679
  761      1       0.15408245       17.96156682       12.24716090
  762      1       3.15676155       17.17639971       13.98018403
  763      1      10.99740068       19.68993213       14.38624453
  764      1       7.43161501        1.66929569        3.64546454
  765      1       2.60413232       15.03627932        1.96382850
  766      1       3.73391904       17.75183802        4.12302827
  767      1      19.12008358       18.66370929       19.57326986
  768      1      14.59117935       18.11618884       25.88114181
  769      1      18.55868140       23.01484615       20.84923188
  770      1      17.12144359       16.50519269        6.51733476
  771      1      20.71065504        8.83464119       18.42910620
  772      1      24.40739197       13.15598027       16.26733051
  773      1       8.68070214       23.39546013       24.16275594
  774      1      14.03587220        1.91021389       18.61674497
  775      1      20.12809634        2.68339637        1.56031077
  776      1      10.46486866        7.19173610        9.73661547
  777      1      20.61529453        5.54000773       21.13401463
  778      1      15.60726925        2.88655041       12.90617330
  779      1      13.28533929       11.82331110       11.16053722
  780      1      19.45156194        9.08381223        8.74628437
  781      1       7.42241493       26.93157370       16.24548660
  782      1       4.80155084        7.68605197       10.01611465
  783      1      24.52216667       26.79465119        2.53496257
  784      1       3.63628805        5.99666629        0.48466175
  785      1       3.72302137        5.13763224       22.99334247
  786      1      13.60537349       23.59035965       17.64879665
  787      1       7.19830989        6.91515959        6.78754128
  788      1       9.79653754       13.70557623        6.33511212
  789      1       4.96399542        1.94371983       23.26369203
  790      1      27.25667411        2.15650432       20.29143160
  791      1      22.08933538       15.38999147       10.05457521
  792      1      21.52833813       13.49806139        8.67481369
  793      1       6.50471830       12.01609364       23.64089965
  794      1      23.96846897       12.20424938        6.05014406
  795      1       6.13606324       26.19099928       19.21949938
  796      1      27.47170930       25.05234603        2.42866042
  797      1      25.02336339       15.16339624       12.29867781
  798      1      25.72120250       13.66728839       21.93099088
  799      1      15.13693781       25.40905096        2.15621933
  800      1       4.52341828       14.24969410        5.43273373
  801      1      10.11368500        6.22629758       24.03731134
  802      1      10.68028144        7.49098168        4.33636391
  803      1      26.46137832        6.50174402       16.42310045
  804      1      20.06700115       20.86461073       23.67998524
  805      1       9.50043905       22.96386293       12.89592946
  806      1      21.07670706       23.59939144        5.93353414
  807      1       1.82708906        9.23794926       26.48463133
  808      1      10.76192677        3.40923750       17.69779625
  809      1      21.07616974        3.65267111       14.30733074
  810      1      21.00875719       20.09472335       26.95529146
  811      1      27.56724542        6.27312053        4.94406646
  812      1       8.51528763       17.02785872       21.51881059
  813      1      15.87599700        5.96770547        8.21085666
  814      1      16.53774065       11.82735674       26.78449726
  815      1       8.33343929       14.69306202       25.28507860
  816      1       7.59902078       24.68453669       22.53188039
  817      1      26.41655754        7.87946774       24.84119017
  818      1      14.54383032       10.95782944        0.05289479
  819      1      11.67334830        3.03596899       12.15712049
  820      1      10.84658227       12.37445835       14.41978835
  821      1       1.64880955       18.21203498       19.55041524
  822      1      13.77582016       21.02568133        7.65838885
  823      1       0.75301816       11.34373923       19.86120727
  824      1       0.75658923        3.63124013        8.99745998
  825      1      10.29934859       14.71367976        0.91318772
  826      1      27.40524589       23.87310330        8.91336939
  827      1       6.17849611        5.22561896       15.95038317
  828      1       0.86728539        0.90565053        2.96683184
  829      1       5.89713341        5.63291031       22.08990945
  830      1       8.82518166        9.62030121       11.74336595
  831      1      26.64644355       10.91702462        3.45531060
  832      1      19.61785649       11.24869608        5.49810136
  833      1       2.21321515        5.40298047        8.51954619
  834      1      15.52447220        0.01808681       15.22265676
  835      1       4.14500585        0.92984095       21.36446855
  836      1      25.87227823       12.27037448        1.69669608
  837      1       8.37550859       24.62608772        5.69628932
  838      1       2.66340032        4.44922035       21.01501630
  839      1       8.04638838       24.60693065       15.90531225
  840      1      22.03349585       26.72234401       19.80088067
  841      1      22.22725814       23.18867814       21.46332699
  842      1      10.30021397       15.35555210       21.62478650
  843      1       5.23515891       18.81230789        0.41383053
  844      1      12.27968064       10.18053673       20.45905976
  845      1      24.96447586       15.68004687       26.60511581
  846      1      13.28725224       24.81147955       24.94396164
  847      1       2.23382321        0.52883426       11.18903900
  848      1      24.32529649       15.52513491       22.73544618
  849      1       5.90492244       23.23017368       12.79187922
  850      1      19.14809814        7.95806947       12.47479205
  851      1      17.50400042       21.45797056        1.81150343
  852      1      15.66815786        2.41365100       15.21397771
  853      1      16.72351877       10.68740692       24.64338600
  854      1      15.32930797       13.20708141        5.57284014
  855      1      11.68500399        2.34473607       19.61194280
  856      1      11.41899895       22.56775555       17.29083662
  857      1       1.91310398        8.46898364       14.14223059
  858      1      23.21064022        0.77715800       22.86870418
  859      1       6.86458475       21.05812917       15.42396972
  860      1       9.02370160        4.32886372        4.98526094
  861      1      10.46850700       24.38035307       15.96260088
  862      1       3.34392590        5.24361743        6.34882953
  863      1      14.27166820        1.49821204       23.21159935
  864      1      20.21331138       10.23865302       20.28342819
  865      1      18.52841188       12.40228558       13.77408970
  866      1      27.25715336       26.36315538       17.90610628
  867      1       6.80020288        8.18763339        0.32585554
  868      1      11.05392828        5.26022489        4.48870549
  869      1      22.74690830        0.29434181       27.22813134
  870      1      23.40607240       16.96238978       17.37455522
  871      1      20.97999497        4.69447980        0.60347302
  872      1       5.25632273        8.60139483       12.11062549
  873      1      25.01937876       10.06682870       21.29672865
  874      1      13.87241813       16.37565137       16.62229182
  875      1       3.41425022       17.01312673       10.19350899
  876      1       4.39322570       15.23804506       16.74144438
  877      1      21.85245440       13.82117980        0.99953250
  878      1       2.99305539        0.86762844       14.82027717
  879      1       3.13947803        6.60056387        2.80066911
  880      1      26.13696035       27.65037441        9.26291075
  881      1       6.77524361       11.30964387       15.97841448
  882      1      15.10320003       18.44284151        4.21481995
  883      1      22.95888344        9.28255393       18.17309986
  884      1      13.79760768        5.82783294        1.94221796
  885      1       5.27243012       26.31404456       10.81867347
  886      1       2.73786480        7.05475171       24.07180921
  887      1       0.39065533       27.65393868        7.86686177
  888      1       1.96698844       24.54582110        9.13766917
  889      1      18.81850917       17.23474608        9.78998603
  890      1      22.46387431       16.71055339        3.05576420
  891      1       1.51181246       15.52513261       26.28420994
  892      1      12.25343635       16.60433735       21.02334857
  893      1      13.66408830       21.87655342       11.76317832
  894      1      25.89231026       25.75280609        0.60998906
  895      1      12.17473215       27.19191899       27.41252414
  896      1       2.85253794       13.80908025        8.65138777
  897      1      19.55913188       26.05904629       14.54768235
  898      1       2.97361329        8.84190499        9.05458333
  899      1      22.83587450        4.40906596       21.45534505
  900      1      25.24645921       26.60607767       13.32216849
  901      1      17.53464028        7.22586484       22.93244565
  902      1      20.81312165       23.91348519       11.80570676
  903      1      17.16599428       25.90610636       14.41649085
  904      1      26.68286560        5.99154319        0.91772387
  905      1      17.74285611       14.37854176       14.77163788
  906      1      14.25130680        8.75956380       27.02030251
  907      1      17.14059883       26.89312813       18.35848387
  908      1      23.94681878       27.60513387       20.80024426
  909      1       0.63385241        2.81219976       16.75403532
  910      1      11.32132340       26.48845382       16.64005233
  911      1       9.60436731       26.09368517        2.08984955
  912      1      26.77299254        7.83016648       10.14722726
  913      1       6.04200544        2.49817468       10.93648794
  914      1      20.40185203        7.80727046       14.65698276
  915      1      22.08035063       26.45809036       23.58454615
  916      1       6.75908789       11.32474800        5.38427246
  917      1      24.57666188       22.19677270        3.35885501
  918      1      22.20462697       20.22000313        1.32204585
  919      1      26.51951876       10.08699455       17.37506961
  920      1       5.37187569        7.35172632       15.49665013
  921      1      11.31029647       12.09580819       23.54614665
  922      1       8.90985710       20.90169121       13.96706863
  923      1      13.57338481        5.23568148       22.61401432
  924      1      17.52493153        8.51282127       24.94498230
  925      1      17.28134427       24.52535400        5.17280242
  926      1      26.12169329       14.99639320        8.67259097
  927      1       5.73407249       18.81260086       12.57044980
  928      1      11.70037664       27.63955133       14.47197419
  929      1      16.47702413       12.02049556        9.05850754
  930      1      13.65665395        1.26841334       26.74520976
  931      1      17.60682670       19.21242714       17.75747484
  932      1      19.64679391        1.16272447        9.32017759
  933      1       3.50879511       13.08366715       17.27170018
  934      1      20.01633111        4.41276874        5.03855190
  935      1       2.24434743       26.91398484        9.08023168
  936      1      20.96622160       15.74747719       20.14409382
  937      1      15.44695446        7.29851393        3.07292248
  938      1      14.90511229       10.60823368        2.32501758
  939      1      22.40940329       11.95179104       12.96649736
  940      1      14.68830742       11.80300178       14.41125904
  941      1       8.14888253       22.20334171        5.57494360
  942      1      15.70632341       17.17308696       15.14913316
  943      1       5.71533604       21.98404234        5.75665452
  944      1      12.63691998        7.78695685       19.96882996
  945      1      12.23467233        2.13990537        2.35404599
  946      1      26.11074744        4.26043910        9.44489785
  947      1      15.44923169        0.51812157       25.32373044
  948      1      12.49428722        8.26900247        9.17646946
  949      1      15.43742798       22.30519481       18.77924086
  950      1      21.39377816        3.22605591       24.96185985
  951      1      25.24970236       20.72993092        8.53727078
  952      1      10.38501221       21.65952388        9.21294481
  953      1       8.68738850        9.48984740       21.82610522
  954      1      18.01742437        7.48462730        7.46860982
  955      1       9.97963244        2.74350259       10.33770122
  956      1      23.68504431        8.02078687       12.76291000
  957      1      21.03805340       15.19989628       25.18575640
  958      1      13.46088000       21.70664613       27.04183050
  959      1      13.61002516       24.45229027        8.58587801
  960      1      15.17587619       15.95780456        9.73420306
  961      1       9.65432625       13.39618591        9.93205738
  962      1      21.04632034       17.13276751        8.94202139
  963      1      26.94647522        2.40316263       12.21847576
  964      1       6.10218590       27.12776202        6.81416484
  965      1       8.62751641       14.68514153       11.72807875
  966      1       8.00788862       20.87826024       26.58425269
  967      1       7.38735638        8.91061817       15.45228798
  968      1      18.36081617       11.28380977        0.75234714
  969      1       4.52807499        7.49117035       20.75934450
  970      1      11.74848869       13.19715100       18.53957580
  971      1      26.29804058       21.23062583       19.48027188
  972      1       0.34561723        8.06289401        6.47851587
  973      1      18.32714092       11.68364835       23.11178193
  974      1       4.62737276       22.94797176       17.64731650
  975      1      11.23663364       10.03800930       14.66159429
  976      1      25.11226819        1.49470231       24.06402582
  977      1      19.76750528       22.41378943       13.40816543
  978      1      25.91585236       12.30169789       14.72916034
  979      1      17.18174933       27.25995791       11.17759502
  980      1       0.94033838        0.68531618        0.58569798
  981      1      14.16750620       11.59256032       20.73666637
  982      1      23.23441846       25.91420469        7.70665003
  983      1      15.17575488        3.46318392       22.26570890
  984      1      24.22178595       13.49027940       25.83834222
  985      1      12.80325712       17.37283615       18.68685256
  986      1      25.82796996        4.85418462        5.75546446
  987      1      14.85954534        5.76433141       17.37190627
  988      1      11.55518620       19.83305159        4.61090291
  989      1       3.56505347        3.27031144        2.89239469
  990      1       8.60727527       17.31650757        5.53075432
  991      1      25.80062041       13.59912855        6.52495092
  992      1       3.95062263       23.66885269       23.14787144
  993      1      17.58569568       16.96059353       16.76600629
  994      1      13.29704690       25.51808242        6.26621593
  995      1      22.36160771       13.34283895        4.75873734
  996      1      24.50058413       18.54843823       13.87333580
  997      1      19.22694686       25.25488954       20.87955400
  998      1      12.25069197        5.32046018       12.54677391
  999      1      14.31256784        2.17327597        1.08562458
 1000      1      18.06532447        9.65526890        4.70146707
