run_id:  1002  total_energy:   -3024.3361587316413

  1000 atoms
  1 atom types
  0.0   27.664  xlo xhi
  0.0   27.664  ylo yhi
  0.0   27.664  zlo zhi

 Atoms

    1      1       0.02969879       18.76548918        6.76931264
    2      1      14.62565620       18.53009646       19.62296692
    3      1      19.85480495       15.24171305       15.87198580
    4      1      17.40384440        8.34463783       17.14169500
    5      1      12.82068271       12.82884913       13.21827522
    6      1       8.84408126       16.63584955        0.74318292
    7      1      13.86677774       23.96506273       27.01839528
    8      1      24.93809904       22.95074697       12.36868029
    9      1       0.65823286       26.02478877        6.10835612
   10      1      26.73281992       27.52679442       27.09493859
   11      1      26.23550645       24.01875847       26.53523630
   12      1      24.73591671       12.82908987       12.65426583
   13      1      11.75239139       16.40287308       11.38803624
   14      1       8.75311098        2.79552564       23.39058169
   15      1      22.29449754       12.21898658       22.82420887
   16      1      15.99723460       21.59301137        7.97995713
   17      1      22.71655325       17.48835994        5.25699593
   18      1       5.63546239        9.39049232       26.30396147
   19      1      25.01668759       10.30085311        5.07274257
   20      1       8.65501857       12.93213926        1.26719269
   21      1      25.63394458       18.09815849        1.79045327
   22      1       2.99755763       23.65764814        7.20045328
   23      1       4.90759151        2.44218697       18.11265409
   24      1      10.39819901       14.33428760       23.85237632
   25      1       0.36773547       14.92721702       19.05641165
   26      1      27.41193402        9.48477602       21.19685139
   27      1      12.91389504       18.16163256        3.64303395
   28      1      22.33991211       19.11904419        9.32954524
   29      1      17.74004236        3.21884423       15.52691704
   30      1      27.30287261       22.38933463        5.60648735
   31      1       4.82918178       21.79135865       14.27171297
   32      1      16.67333286       18.80649965       22.84776923
   33      1      16.96429929        2.93339025        3.33688416
   34      1       9.67486303       16.74584978       12.32918520
   35      1       8.23580829        6.14879305       12.46638871
   36      1      15.75013554       27.19144464        3.58772037
   37      1      10.64306987        6.48505259       20.03471824
   38      1       7.02348493       26.90400029       23.07630592
   39      1      21.87446431        2.74211741       18.06813495
   40      1      10.71961499        0.53000943        1.30200338
   41      1      10.80855521        7.13575282       27.62476937
   42      1      10.62668938       25.37403599        8.65472159
   43      1       4.52930934        0.67447287       11.52217668
   44      1       8.90394379       18.74602339       23.16691884
   45      1       1.36155096       13.16179949       26.41002130
   46      1      23.72086322       11.00423326       19.49066427
   47      1      14.40315506        7.71701778       14.42479932
   48      1       6.61473608        4.98772053       25.70149767
   49      1      14.98425849       20.34563915       25.96052872
   50      1       9.77810204        4.89875251        8.89683905
   51      1       1.38597971       18.50760353        1.07347535
   52      1       7.36419860        2.40512050        1.28862492
   53      1      24.48929323       19.92969069       22.67662944
   54      1       0.34253363       21.48990433       13.33893965
   55      1       6.90057593       21.97802821       11.09885059
   56      1       4.60881779       24.44699771       19.63465567
   57      1       1.88630779       18.82834118        3.35479149
   58      1       5.76995223       11.76159870        9.29542033
   59      1      27.19062288       11.74307018        7.36056788
   60      1      23.34032873        4.41065773        0.20791801
   61      1       2.39995591        3.07058192       15.27018750
   62      1      18.77458308        0.70897592       23.29357977
   63      1       8.12697296       11.70020250        9.20316508
   64      1       5.47241139        0.01429346       17.50648739
   65      1      20.41772714       21.75728421       21.55265135
   66      1       7.07542570        5.13265160        3.60027254
   67      1      15.95720530       13.21322406       15.93541820
   68      1      24.43199093        7.22308201       23.54662118
   69      1       0.19170706       12.28333135       24.60361401
   70      1       6.71185234        3.51336162       19.08675578
   71      1      10.37989556       17.37686736       14.61229943
   72      1      13.73817543        9.69429732       17.33075571
   73      1      13.30253520       21.08078872        1.58841358
   74      1      24.84136456        3.52442554       14.79485079
   75      1      26.35394634        1.85014831       15.78170595
   76      1       2.65738408       10.68785652       10.63584838
   77      1       2.66545504       23.60359812       11.17097322
   78      1       7.70761985       20.03764046       12.19019192
   79      1       3.85662930       16.84529238        7.79783579
   80      1      23.74148265       26.56655574       16.59185075
   81      1       6.98831891        7.57700967        8.99377414
   82      1      18.79307281        3.98108501       21.33622618
   83      1      11.03407581       18.94380659       26.26944675
   84      1      14.76597263       27.41841005        5.79341550
   85      1       0.70472369       21.96966991       18.57535651
   86      1       5.67264841       17.97299906        2.77304226
   87      1      26.81283706       25.13184485       19.91887406
   88      1       9.56172440       15.00511424        8.23215187
   89      1      25.26609370        3.78408492       24.47847924
   90      1      24.21292191        5.80899679       15.86321927
   91      1      11.77451155        4.50394553        2.39864897
   92      1       0.56644562       12.58809075       15.64737660
   93      1      20.00996255        0.36053908       15.57288611
   94      1      16.10186230       10.23172690       20.32736592
   95      1      22.82574055       14.21671014       24.05258173
   96      1      17.71954263       20.80143754       23.71927870
   97      1      10.11233879       19.73275445       19.82008636
   98      1      12.98751450        9.50813457       11.18121259
   99      1      25.52473573       10.08072383       15.26768805
  100      1      27.52165913        6.23107850       26.29930886
  101      1      22.77521427       11.61515613        8.02784242
  102      1      15.04011744       26.01436738       24.02257096
  103      1       8.99640947       14.67288674       16.85775560
  104      1      18.91490357       22.89693530        5.06581245
  105      1      17.89566051       26.50703829        4.10461935
  106      1       2.92461731       25.46872823        5.78510093
  107      1       9.68520308        9.95446902       18.11945400
  108      1      11.19392890        5.29853515       22.08100396
  109      1      23.77105403        1.41114668        2.60738547
  110      1      16.05043452       24.50833978        0.01073507
  111      1      13.84533768       13.59288471       19.47660437
  112      1       1.79027031       15.70319403        7.48769889
  113      1      11.11151172        6.87922540       16.46763207
  114      1      12.86435566        7.74116168        0.94473024
  115      1      23.82007898       24.45622617        9.46937209
  116      1      17.20253419       14.59641920        5.21488331
  117      1      19.83851547        4.86931515       25.92445945
  118      1       8.72213616        2.54444930       14.47568820
  119      1      18.94378068       18.95360030       13.05697963
  120      1      12.00824305        0.56423880       16.52923895
  121      1      12.58335842        5.98277046       14.70618237
  122      1      18.14001023       15.14354485       27.07033203
  123      1      26.95737057       14.26026730        4.59683911
  124      1       5.83360028       19.24727253       16.49914964
  125      1      14.47315559        6.75723778       21.01096983
  126      1       2.63592085       12.33628987       20.87995370
  127      1      19.64949812        6.30589217        3.72124467
  128      1      11.12067817       13.91015142       16.26354264
  129      1      20.92752090       16.69625824        6.59293655
  130      1      14.92194984       22.16344698       21.02058221
  131      1       5.07483510       11.02120536        7.07945160
  132      1      14.91665778       17.21650586        6.21989475
  133      1      25.16234467       25.21787409       15.24417426
  134      1      16.86314837       22.72405190       22.48313974
  135      1       5.24172886       23.21912617        7.67182341
  136      1       6.05760629       20.97011285        0.35775464
  137      1       9.50487905        2.02093015        4.94507146
  138      1       3.01050956       19.43894793       27.32639742
  139      1       6.28603522       15.03335605       11.21479115
  140      1      13.00896547       15.81193689        3.84176421
  141      1       9.59944173       24.45762171       26.15205092
  142      1      26.87793993        0.67596971       13.77831419
  143      1       9.16012580        9.67081677       25.58566323
  144      1       3.89428508        9.02687675        6.86237579
  145      1      17.18118663       23.48006711       10.80215558
  146      1      21.62735072        8.60481012        1.00816062
  147      1       1.83571067       21.88489003        5.96713102
  148      1      11.44029186       26.94106456       10.24943831
  149      1      13.82996947        1.96295406       11.84660015
  150      1       7.36189320        1.19675127        7.90173955
  151      1       0.40088624       12.15427716        0.60240527
  152      1       0.09439168        9.15369965        2.39705662
  153      1      15.44573269       20.61541692        4.75459050
  154      1       7.79338130       25.62198447        3.66255366
  155      1      14.07897234       14.34911084       23.39309243
  156      1      24.69877425       17.66742880       19.20952979
  157      1       2.07018283       24.88610568        1.71731303
  158      1       8.73091479        8.30931059        5.40568466
  159      1       1.27648340       14.17634010       12.25004956
  160      1       2.10713764        6.90219665       26.37658919
  161      1       4.26521355       20.59355040       17.93902007
  162      1       5.51033074       16.33727239       18.47414306
  163      1       5.12409103        1.18458058       13.80714702
  164      1      27.45864051        7.08157451       14.33779434
  165      1      13.34916671       14.88073449        8.55547179
  166      1      19.42497981       23.57250950       26.72028713
  167      1       5.83814135       15.26050308       14.90837656
  168      1      11.01492216       18.58009285       17.94312794
  169      1      14.66924887       18.29308564        9.86126113
  170      1      26.60675331        7.24724663        3.00878454
  171      1      11.50508203       24.50696865        2.77791448
  172      1      20.64889424       15.35182987       12.08414890
  173      1       7.36508931       17.98594871        9.30622887
  174      1       1.73903162       14.47258092       21.27882957
  175      1      16.35247768        9.20223740        6.27674906
  176      1       2.24091742       21.12673064        3.70877410
  177      1      18.12529520       13.60103595        8.55516573
  178      1      25.70901331       23.30266457       22.58239511
  179      1      11.51280939       18.24450799        8.05290970
  180      1      25.54484973       18.07972285        4.07486394
  181      1       8.18288964       25.08775230       19.21441845
  182      1      22.52699063       21.03217707       18.70226741
  183      1      15.40088410       21.75103793        2.76796490
  184      1      21.12616846       26.85748789        2.96254098
  185      1      24.94754817        1.47404955       19.38781383
  186      1      21.93231216        8.33793998        6.14803720
  187      1       0.81941483       23.33343935       26.25697865
  188      1      12.55816228       18.38831031       22.58124514
  189      1      17.45088909       22.57772611       27.41865177
  190      1      14.93363861        5.55969402        6.02450668
  191      1      14.28222769       25.59587213       12.30247804
  192      1      10.77847831        3.03634785       21.97707515
  193      1      25.72764584       25.24432941       24.08374272
  194      1      21.79683121        0.96198718        1.61997793
  195      1      10.26038438        3.53486918       26.71702622
  196      1      18.00844075       24.70685307       17.47804973
  197      1      20.89155092       20.77881558       17.03898567
  198      1      16.56578395       25.36837133       12.21562473
  199      1       3.46306449       26.95490497       16.48705688
  200      1       1.25050029       18.08754614       10.19329434
  201      1       3.98748634       15.92220897       26.19993527
  202      1      16.03147632        5.77092672       19.37003015
  203      1      22.03946687       20.54773547       11.24852311
  204      1       3.75418497       24.85164048        3.47972567
  205      1      18.31556029        5.73818813       12.31872316
  206      1       9.15628841       10.58342257        1.85401322
  207      1      26.77296837        5.51759132       21.30079938
  208      1      26.26677458        7.92877271       18.31243467
  209      1      26.88110834        4.87908988       13.20079386
  210      1      12.93924612        8.96699218       25.08362411
  211      1       4.69614408        9.26578659       22.34458024
  212      1      24.77658876       22.18721288       26.76393020
  213      1       0.17157559       17.86690707        4.69798427
  214      1      23.16842894       16.70123078       20.94091239
  215      1      13.28475415       25.71236134       18.42012702
  216      1      14.13135713       15.24214339       21.17867417
  217      1      26.26051289       15.97238907        0.99078270
  218      1       4.85508465        3.18838963       26.43638852
  219      1       3.80942285       18.63372326        6.35311464
  220      1      20.47850927       10.70726235       23.76581908
  221      1       9.89584250       22.33287539       27.28075583
  222      1      11.37407464       25.98991447       25.50471542
  223      1       1.73900000       12.31040256       13.61016382
  224      1       9.78268375        8.82806451       16.07852788
  225      1      17.27546119        3.75824263       19.54535010
  226      1      16.55442440       11.44106744       12.89633660
  227      1      25.54591678       14.40196287        2.60695331
  228      1       6.14014536        5.97564363        0.11554406
  229      1      13.64671251       12.03820113       22.97121969
  230      1      26.68378432       20.18537041       21.57754786
  231      1       7.62689499        5.65712576       10.20466974
  232      1      22.61423835       19.78161521       13.46271733
  233      1       4.40038761       12.16776938        2.33664766
  234      1       1.10936713       19.02079312       21.62926163
  235      1      21.39429623       16.13463387       14.12199018
  236      1       1.80525206       27.06241126       18.24824664
  237      1      17.05905455       24.91021248       23.60844711
  238      1      20.05332359       24.00781501        1.30564991
  239      1      14.26321652        6.18720550       11.35674934
  240      1      22.28940794       25.22987856       17.97032174
  241      1      14.67030036        9.94340860       23.65741064
  242      1      19.55732361        7.84960920        5.38816863
  243      1       5.40172574       18.66817056       23.74068162
  244      1      24.83848449        2.73303179        0.90321289
  245      1      12.16361314       12.85270624        9.39911527
  246      1       6.89177764       24.99313434        7.53825395
  247      1      19.02759217        5.08537070        7.10993825
  248      1      12.23252783        3.74438784       15.66419834
  249      1      22.54793965        9.82628283       11.62300857
  250      1       1.41644557       18.84748714       16.11752281
  251      1      16.08403579       14.14552336       26.59238989
  252      1       2.99889304        1.15175519        3.75481759
  253      1       5.17967519       13.10244247        0.26166406
  254      1       5.70261463       23.44510507       21.56309924
  255      1      11.83445598        6.82615750       25.43982027
  256      1       0.99133479       15.76047662        5.23017160
  257      1      24.28094661        0.30419248        7.86940441
  258      1      24.66187304        5.19104721        7.75756352
  259      1      15.49329918       27.60083517        9.54206217
  260      1      23.37800622       18.15848302        1.44324836
  261      1      21.12854169       19.94172542       20.30870590
  262      1      25.53207206       16.70391834       24.53867450
  263      1      24.88681182        1.25008832       26.64667978
  264      1      19.94398836       16.87798254       24.07942637
  265      1      12.82451458       18.70913495        1.45871030
  266      1      17.48747252       21.19645945        6.12683896
  267      1       7.59645034       26.71021846       10.80183899
  268      1       9.33403017       24.92927773       21.19280603
  269      1       6.93424627       19.97089858        8.23538975
  270      1       5.46016787       21.55544009        9.35890267
  271      1      16.41020515        3.70453431        9.37828243
  272      1       4.89519433       10.93971904       11.63689874
  273      1      21.78040370       12.00637299       20.40974883
  274      1      16.04170641       21.52348477       11.59831153
  275      1       0.01370882        9.83953752        0.12445610
  276      1      22.27082446        3.78938215        5.47247445
  277      1      17.82117443        7.24282578       19.14163818
  278      1       4.86797331       17.13328968       21.97311539
  279      1       8.93381146       22.99120980       10.58233784
  280      1      20.32753231       24.70325233       16.49714454
  281      1       9.64750939        9.66722992        7.07147586
  282      1      26.74186793        0.82763184       22.33594134
  283      1       2.00183264        4.98691553        4.25541234
  284      1      20.90418550        1.12468055       26.02717588
  285      1       2.60160639        5.86393579       17.64822194
  286      1      22.80236626        7.69948054       14.82950550
  287      1      15.51200672       12.63134165       11.13772658
  288      1       4.37939794       14.67181905       24.25562672
  289      1       1.44290510       10.29507886       24.30995108
  290      1      21.40444853       25.36584658       21.61489927
  291      1      10.38360123       11.18439791       21.54277031
  292      1       4.08092543        4.12565021       16.63044768
  293      1       2.85927089       20.61896752       21.73576374
  294      1      23.42871086       25.69164782       27.21660838
  295      1      20.67799411        1.01478410       19.42089975
  296      1       0.10234770       14.07790236       23.01150852
  297      1      17.84438480       17.52705466       21.25360838
  298      1      14.29025168       15.01332281        0.25406973
  299      1       0.53983447        8.44171349       23.32487780
  300      1       4.76853693       27.06762703        0.59518915
  301      1      19.36299819       25.32863295        8.55014699
  302      1      14.67136606       14.64988603        2.50266877
  303      1       7.24442508       11.03996106       25.63432987
  304      1      17.25422344        4.36743442        1.55410399
  305      1      19.95507953        7.15077619       22.60234982
  306      1      16.70887186       23.92826961       15.57021438
  307      1       4.08650455        9.92354658        2.03058710
  308      1       1.58259326       20.31962167        9.46871065
  309      1       9.47412432        0.85062578        7.03476233
  310      1      24.92281011        1.08618571        5.79819817
  311      1      20.13827412       16.93612610       18.11222472
  312      1       0.94440056        2.99155978       27.62192877
  313      1       3.10899055       10.96928881       22.77678902
  314      1      23.76261035       22.17479399       22.99990433
  315      1       1.32455295        1.65048137       18.76958402
  316      1      14.80278265       27.41372376       17.51087256
  317      1      13.22624881       21.42369702        5.43133135
  318      1      25.71907548       18.99241439       11.90941360
  319      1      24.64717991       18.47563734        9.77684720
  320      1       4.30930562       24.80211880       12.38493074
  321      1       7.78818568       24.41133029       13.68669635
  322      1      12.52515257       17.61055610       24.87596642
  323      1       2.04425145        9.35703242        5.51976264
  324      1      20.31407454       13.02216637       12.28256268
  325      1       9.86307269        0.69825587       19.93817342
  326      1      23.79396903       22.60189971        8.05416139
  327      1       8.37528500       26.54291413       12.91198813
  328      1      23.46108023        5.99487055       11.51309045
  329      1      14.83673953        7.73234874        5.19123973
  330      1      21.39408878       22.43846691        7.95598217
  331      1      23.77921305       16.27812543       13.96509497
  332      1       3.78548613        5.21362646       12.52625481
  333      1      22.55455739       18.78043235       21.81906160
  334      1       0.62789117        3.78721253       21.92087881
  335      1      11.04590511        2.49685252       13.97091186
  336      1      26.36331712       21.21502248       11.76114385
  337      1      19.70947767       20.60859568       11.47633771
  338      1      24.82369379        5.17777345       22.60922693
  339      1      19.90533922        4.40113445       11.00046589
  340      1      19.04931231       19.72040877        7.18354826
  341      1       8.75406405       13.08167215       13.41632796
  342      1      11.45009391       11.05046309        1.91597415
  343      1      18.72558421       19.16032835       27.07014037
  344      1      26.86934910       15.90488319       15.43694405
  345      1       3.50942289       25.83814296       23.99409200
  346      1      10.09164023       21.94345570       19.20485484
  347      1      24.10209738       10.93194107        0.85301714
  348      1      13.47502537        5.10879971       25.05023851
  349      1      25.89233927        8.62612245       13.47703741
  350      1      26.25181166        9.59548484        6.92427972
  351      1      18.23448099        1.13740154        7.25784115
  352      1      26.81630427       22.92219417        3.33618594
  353      1       8.08715949        0.27993828       26.41543288
  354      1      12.96048126        2.33952247        8.19482190
  355      1      19.75205000        8.97331474       25.44459921
  356      1      16.10564074       14.88423147       24.34231684
  357      1      19.76153479       12.47678098       10.02848966
  358      1      18.18131533       13.26271168       19.16536734
  359      1      22.61881069       18.80571782       25.63954880
  360      1      25.93234839       25.32846350        9.91119807
  361      1      15.12753051        4.38467696        0.64792610
  362      1      12.36672557        3.02699403       25.68260573
  363      1      10.16174503       20.38431573        2.75968466
  364      1      26.26411582       24.83976576       12.05730979
  365      1      16.18400246        1.14968141        2.08078691
  366      1      18.99319575        0.73532475       17.76752783
  367      1       6.60582206        6.73525531       24.02174456
  368      1       6.63294212       15.67715507       21.69677707
  369      1       8.37364087       25.86752235       27.57392155
  370      1      15.44498355       20.02364934       18.06329287
  371      1      10.82672899       27.48477617       23.73208075
  372      1      26.93340335        3.73294015        1.46751882
  373      1      23.15641718        5.74712824       17.99777741
  374      1      14.38723503       12.58588002        3.47238165
  375      1      16.83535122       15.45886252        2.98441253
  376      1       6.21321476       14.46607718       19.71541231
  377      1      26.12791179       20.50713302        6.44413302
  378      1       9.06333517        8.27261815       19.75067704
  379      1       3.96293651        7.35844201       13.56522950
  380      1      27.04969514       12.81159372        9.50379868
  381      1      24.64409484       19.93883109       18.28891247
  382      1      12.73160604       22.32921275        9.43389362
  383      1      13.00497391       23.61596012       21.40522129
  384      1      23.93637518       10.50158230        9.79919388
  385      1      18.10607219       11.36094923       20.76158450
  386      1      14.24357125       20.57414575       16.09458672
  387      1       5.82840447       19.71240567        6.21876749
  388      1      27.05514832       19.76133185        0.83387293
  389      1       4.13378383       17.74924369       19.87613208
  390      1       1.07029851       10.93854590       17.34301777
  391      1      11.10753989       22.27612025        1.76002250
  392      1       1.57955403       17.61745564       23.50370566
  393      1       3.75970062       27.27744791        7.12165957
  394      1      26.72881634       21.59766633       15.26527132
  395      1       7.45512780        0.53051538       14.35088848
  396      1       4.53893362       27.17782021        3.04212785
  397      1       5.50644045        3.54981838       13.03060655
  398      1       5.62614591       15.34118083        7.33205172
  399      1       6.26182351        0.02032461       20.96175302
  400      1      27.05466238       17.92533466       16.56692625
  401      1       8.98315690       18.52858822       10.92733838
  402      1       7.91509667        1.33790706       10.20359950
  403      1       1.81278240        4.18478202       13.20044328
  404      1       5.67395091        3.32548893        4.04720851
  405      1       7.41461842        8.29471865       12.97523252
  406      1       1.05646998        7.48275935        8.66286437
  407      1       2.72280226        9.66492344       16.10801520
  408      1      25.31394881        2.24366337       10.42153996
  409      1      19.32486849       26.83063214       10.36823329
  410      1      18.42624717        2.73307372       10.44358963
  411      1       7.62338167        5.33009886       17.77235725
  412      1      18.32170138       17.19723270       25.82527014
  413      1      11.84875096       10.84080967       18.31857242
  414      1       6.14703210       25.17750109        0.23359214
  415      1      14.47792562       21.22616639       23.90062701
  416      1       3.08380469       15.63048985       12.24941835
  417      1      12.21407978       14.21485962       27.12310917
  418      1      21.66924646        1.57116777       10.67005702
  419      1      22.95482252        0.00612553       12.91455868
  420      1      10.71170646       26.49731123       12.67266662
  421      1       6.60825731       10.49544924       21.74788784
  422      1       0.62027724       12.43735099        4.11204064
  423      1       7.73893023        9.78724436        3.78501011
  424      1      19.62788076       23.31039047        9.81012174
  425      1      20.73413709        8.46605692       10.67107436
  426      1      22.38928639       24.11718693        1.02193268
  427      1      17.25135269       20.73756310       26.02606960
  428      1      12.73804661       18.53781874       11.19640123
  429      1       3.45766758       25.12163343       14.79407130
  430      1       5.84834857       12.99754399        4.03384031
  431      1       7.41009417       12.99767774       26.95008510
  432      1      24.90634855       22.92511970       14.63030595
  433      1      22.85332238       22.89384540       11.21675814
  434      1       3.51866328        3.31520544       24.42607957
  435      1       0.71440607       22.86591776       16.43925392
  436      1      21.07024779       25.76795457        6.86630679
  437      1       8.43197766       25.00397276        9.41734271
  438      1      15.95875186       23.78508108        8.74395393
  439      1      12.97688144       25.38101767        1.13584045
  440      1      20.71918644       13.11780641       16.66666435
  441      1       3.84948484        7.91757213       17.13938161
  442      1      17.27005704       25.17467506        7.44664054
  443      1      17.31065610       15.81851238        8.72367340
  444      1      10.10239583        5.07118891        0.82068235
  445      1      15.23375213       14.93620276       11.82957260
  446      1      11.02172200        9.13118107       12.49766596
  447      1       4.36877225       22.29851626        3.81774984
  448      1       4.93378383        7.04913931        6.00555311
  449      1      24.87065518       19.00081109       24.80579954
  450      1       6.45818178       27.36346476        4.38486825
  451      1       9.30115170       26.92261193       18.15400051
  452      1      27.55592706       26.70669764        4.05881073
  453      1      19.63462235        9.32041177        0.04344781
  454      1       1.93183475       22.86694716        0.55966732
  455      1       5.93509677       10.79118851       19.48208235
  456      1       0.55459074       21.62558814        2.02689638
  457      1      17.30240412       11.95239659       17.31344582
  458      1      11.21603361       24.39346583       13.74777384
  459      1       4.64003814       15.22733842        0.69362880
  460      1      22.04593549        3.97383673       12.16163367
  461      1      20.15236691        5.55767430       15.36475597
  462      1      19.80928695       12.86777952        1.86043613
  463      1       4.38507993       11.44499980       15.74525207
  464      1       5.24242196       27.51419404       24.52368957
  465      1      13.08300972       15.12790714       12.92791101
  466      1      23.11301288       22.76507526       25.14138501
  467      1      17.12643278        9.32602503       11.93396070
  468      1      24.60279708       20.21281971        4.70251410
  469      1      21.83408471        2.63759987       22.68427748
  470      1       7.75321837       16.42106068        7.59911699
  471      1       5.33946857        6.87178857        3.69013488
  472      1      25.61973853       11.67092447       25.05600646
  473      1      22.86947712        1.62957783        4.85998551
  474      1      22.50645411       11.99953848       15.41470071
  475      1      27.53849923       21.91146658       22.97023186
  476      1      11.43219602       21.22801139       25.94193364
  477      1      15.67902762        2.22881805       20.20280026
  478      1       7.74131464       11.39359505       18.12600683
  479      1      22.79854837       12.31729166       27.22333478
  480      1      11.84026212        1.29617771        4.50294767
  481      1      12.22565773        4.64198107        8.30422253
  482      1      22.32089698       19.81446301        5.21222647
  483      1      14.47868859       23.02607517       15.52269307
  484      1       6.71239846       14.41304828       23.62110343
  485      1      17.89163765       19.14512178        1.65118551
  486      1      18.70136276       14.96711838        1.71380716
  487      1      24.63976509       25.00106935        6.04183726
  488      1      19.43630027       22.25266539        2.88704380
  489      1      16.16304699        4.90876769       11.58863773
  490      1       9.26118230       17.12205012       16.83092111
  491      1      12.17355741       15.77503148       15.12197337
  492      1      11.88632991       20.28803968       16.46375460
  493      1      27.22615662       15.76472224       13.02229632
  494      1       3.21743828       23.02061528       15.74939000
  495      1      19.10153899       26.11091049        2.11840890
  496      1      17.72801221       22.74020216       18.65514560
  497      1       0.06251225       16.94186641        8.45700217
  498      1      23.47196936       25.10882985       24.95861832
  499      1      20.15643496       27.11196081       24.64622828
  500      1      24.60640327       15.48562067       15.95007115
  501      1      18.88996929       13.36156595        6.32012278
  502      1       6.38612760       21.97889819        2.40099739
  503      1      18.16148306       14.02658600       23.45073706
  504      1       1.69431876       19.36512098       13.63092824
  505      1      22.38479681        0.33995276       15.24084288
  506      1      17.90979034        5.38627906       14.69729348
  507      1      16.04125464       10.04294971       17.97304339
  508      1      22.06875807        6.75950387        9.72677741
  509      1      12.89063263        9.36745772        2.64887859
  510      1      13.93534487        0.01474483       13.36579293
  511      1       3.02602146       15.59536870        4.17329794
  512      1       2.48352480       16.43568830       16.15343495
  513      1       8.66405312        8.05787333       23.80823984
  514      1       7.91516538       16.80992589       26.25952301
  515      1      17.84368630       26.58220775       22.11862572
  516      1      12.71494044        4.79396176        6.03241133
  517      1      13.19062148       23.71844991        4.66884975
  518      1       7.08473014       20.15498082       23.00725111
  519      1       1.36724023       10.18214910       12.54777356
  520      1      10.02605102        5.37002054       17.94800791
  521      1      18.61847863       25.41823051       25.40729510
  522      1      23.22540285        2.01894841        9.03568583
  523      1       3.95374080        5.54206021       10.15228720
  524      1       3.09807573       15.90619870       22.69827638
  525      1       4.10056848       12.23621276       13.52606923
  526      1      16.33147171       17.25028914       24.62241358
  527      1       2.49970269       26.56291667        0.09884037
  528      1      12.87790906       25.90533846       20.77508678
  529      1      20.92978378       18.42025854       14.35921576
  530      1       3.89632098       21.79670050       27.19055866
  531      1       4.65088346        3.33127722        6.15893309
  532      1      14.83773809        8.30090414       12.15055351
  533      1       7.34129332        7.65943053       18.13354970
  534      1       6.48944031        3.35193888        7.55157166
  535      1       4.86865599        8.18182605       24.38256581
  536      1      14.28889248        3.47216702       16.73529282
  537      1       3.22256012        3.69212203        0.50737992
  538      1      23.74896873        6.77663455        3.07426971
  539      1      18.56962195       21.16266142       17.06052434
  540      1      21.08623153       22.64595462       15.38735200
  541      1      23.69488493        3.73677805       19.34093241
  542      1       1.16891597       23.82387219       20.14050058
  543      1      12.87865590       22.94359288       23.68341410
  544      1      13.40724007       23.66372123       13.38827534
  545      1       2.58812674       25.66184519       20.03084877
  546      1       3.02441933        1.58948020        6.10260854
  547      1      24.67958411       11.70943869       22.85372262
  548      1       7.93828243       18.88684182       19.92437067
  549      1      10.88090039       19.45649766        9.96041346
  550      1       4.65401592       22.16562674       24.89231108
  551      1       3.40159218       12.62232480        6.71973993
  552      1      23.89540378        2.38988013       12.66178141
  553      1      17.62493695        6.38117847        2.51696989
  554      1      18.52608628        3.09453055       17.69242519
  555      1      17.55629722        1.81403973       25.19069742
  556      1       6.71854682        3.20985393       22.31620601
  557      1      18.98617539        1.64331983       27.29862615
  558      1      17.79678041        7.94432945        0.77872989
  559      1      23.10594681       23.26611625       19.29519364
  560      1      22.80038454       25.30025186        2.90124550
  561      1       0.10439147        7.41317595       20.12882149
  562      1       7.71933120        4.75377392        1.41782825
  563      1       0.78099074       23.79325444       12.60413841
  564      1      20.28295382       16.71569880        2.15002482
  565      1       7.52428217       11.55579684       12.06731575
  566      1      26.84495742       24.28952406        6.72396691
  567      1      26.70482686       13.08832563       19.75177599
  568      1       0.85243552        2.14667808        7.11416805
  569      1      17.39396187        3.29225589        7.15089764
  570      1      27.40357541       25.02522283       16.03217402
  571      1      20.89018997       22.02549332       25.61364568
  572      1      13.70212056       14.89750101        6.11884196
  573      1      16.90872780       20.36043487       13.49602758
  574      1      25.51445689        0.30640178       17.42597923
  575      1       2.57087414       26.96826473       22.13688069
  576      1       8.90166293       18.77362781       25.53145034
  577      1       6.26172184       24.40914473        2.39038416
  578      1      13.12913538        7.44629230       17.69028285
  579      1      14.56644351       19.58744114       21.87696415
  580      1      15.69913122        8.50251643       21.94205526
  581      1      27.18834973       21.59021459        9.62333322
  582      1      21.23115226       18.75292266       23.74748244
  583      1      23.21005890       23.76562536        4.62956474
  584      1       6.64418380       21.07104887       20.80005128
  585      1      24.44319993       15.97137132       10.12498440
  586      1      20.63243236        6.85918329       24.84926765
  587      1      14.69282494        2.06430630        9.67021891
  588      1      25.87915235        5.80941408       11.15702745
  589      1      13.56025348        9.82580773       15.10645114
  590      1      17.18785997        4.73125503       22.94780566
  591      1      21.35457361       20.23151486        7.37170143
  592      1      18.68629165       16.80387294       12.07309531
  593      1       4.89544886       14.39644682       12.99611395
  594      1      11.07007917       14.74934511        3.11609166
  595      1      20.90342076       20.33764003        3.27826233
  596      1      17.84616484       27.64365074        0.74106155
  597      1      25.36988445       26.80994461        4.66352083
  598      1       0.19259486        4.97505623       17.52362656
  599      1       7.39847533        4.45278116       13.99432565
  600      1       8.89862351        4.40796602       25.05944370
  601      1       7.54904259       14.20986719        3.03189265
  602      1      11.46198659       16.13763196        8.98020596
  603      1      12.02858843        1.86297549       23.64867127
  604      1      17.55615411        4.19662736       25.18810595
  605      1      13.74505929        6.32094279        9.13136022
  606      1       3.56074889       12.22524343       26.50299309
  607      1      17.60945434        1.68427582       12.34523416
  608      1      27.13609304       17.15494198       18.85806796
  609      1      27.60568615       26.65687661       25.07949582
  610      1      16.26148891        6.83957905       15.72429698
  611      1      25.82500962       26.41655081       21.71663720
  612      1       4.49446390       12.68005818       19.41100336
  613      1      19.50003426        9.17222890       16.39510649
  614      1      25.36091327       23.28209053       20.11186606
  615      1      11.52370595       26.54406082        4.79455158
  616      1      18.05092100       10.48074335        9.95590993
  617      1       2.04836965       19.43878655       25.12111006
  618      1      13.66894858       26.18480283       10.12844829
  619      1       9.00878252       20.83931634        7.35354108
  620      1       1.98712952       19.94217446        7.16612393
  621      1      10.71316431       19.81841828       22.21861559
  622      1       6.88676687       22.84086284       16.97642642
  623      1      11.97511256        9.51631151        7.13640066
  624      1       5.77741231        0.91942893       26.70831096
  625      1      16.78830614       15.90845570       13.29106041
  626      1      15.29704398       11.35160821        7.11228407
  627      1      22.66640631        3.92335860        7.79274399
  628      1       5.83934443        4.28355217        9.57387154
  629      1      15.95043403       16.61176011       20.23065900
  630      1      10.61122878       21.98261999       23.43996281
  631      1      16.16724353       17.67773517        2.23972987
  632      1      20.59600442       13.57774704       19.08476762
  633      1      24.37416983        6.39017587        0.74504458
  634      1       0.85469378       14.70834505       16.67059933
  635      1       1.23997694        2.83871313       24.04317499
  636      1      17.86070394       21.98636750       14.90681415
  637      1      16.91163191       26.43665206       26.67779341
  638      1       5.67120330       17.63317313       25.99473144
  639      1       9.07138047        8.82455310        0.11302087
  640      1      23.60097650       22.09043560        1.19540717
  641      1      27.46977280        3.92966598       25.59316255
  642      1      11.02879604        1.24015387        8.86359465
  643      1       9.18911424       15.11671758        4.50689984
  644      1       4.60929107       20.10020655       20.15834849
  645      1       1.39082056        2.71563061       11.15473724
  646      1      14.50536403       27.09426609       21.94244815
  647      1      19.32591202       13.74289138       25.53570259
  648      1      21.33011746       15.77257913       27.46143436
  649      1      12.31382960       15.19590543       24.87443063
  650      1      21.42540520       18.41874799       16.70235650
  651      1      20.12526017        6.51903309       19.05563344
  652      1      26.91547487        9.66670966       11.70546180
  653      1       5.23155461       14.02589586        9.28561156
  654      1      25.29700826       12.03987621       18.19553321
  655      1       8.06712510       20.86542667        3.63458746
  656      1       2.03414903       12.79407055        2.26841046
  657      1      11.96901258       13.05474523        5.94795353
  658      1       6.66387787       16.04098410        1.83117520
  659      1      26.19192235       20.36245623       26.29171025
  660      1       7.87073642       22.59342863       19.08069916
  661      1      16.25873866        7.54703961       26.66288990
  662      1      19.40025611       18.53416991        3.36208871
  663      1       0.93845742       16.23868893        0.74255228
  664      1       1.25924196       25.40898180       14.21118395
  665      1      17.16115423        9.80057700        2.39254877
  666      1      14.94932755       14.51365682       17.55957394
  667      1      12.02893241       12.61275459        3.59823491
  668      1      13.01170036       19.89322975       12.99956301
  669      1      21.13958434        9.07914514       22.08215001
  670      1      20.76051543        4.99850181        8.83121576
  671      1      24.07241617        7.55513768       19.20708265
  672      1       8.57641157       11.78155227        6.79917092
  673      1       7.54367748       13.61891087       15.30677304
  674      1      16.41999998       27.30877173        7.45960938
  675      1       1.55183281       12.83555149       10.25046145
  676      1      25.69325594       11.55518778       10.92999695
  677      1       8.22095851        4.83782927        7.01173378
  678      1      20.38575265        4.69726545       17.57736600
  679      1      10.43984324       18.58354227        0.97733337
  680      1       1.90955161       22.74656790       22.08117146
  681      1       3.27922359        2.45598325       19.81227677
  682      1      12.64929117        8.62776140        4.99814823
  683      1      19.91369745        1.95099512       21.59933429
  684      1      15.33408980       23.83310170        3.78722735
  685      1      23.30558345        9.75086119       15.91013654
  686      1       2.30160429        8.83474764        3.18613920
  687      1      22.45811417       10.16959121        2.57120768
  688      1       4.23480423       12.28340697       24.28930892
  689      1      20.75278270       26.25840089       12.35240929
  690      1       5.31474058        8.53969806       18.86280405
  691      1      16.87115767       15.37890752       18.48948802
  692      1      20.97439305       10.24265777        7.21434906
  693      1      15.61423203        5.28173031       26.19314426
  694      1      18.98999606       17.82552371        5.77427646
  695      1       1.86808442       25.49797699       25.70762096
  696      1      21.35770961        6.53255161        2.14764788
  697      1      23.53155701        8.15553666       27.11732002
  698      1      19.03685719        0.67944370        5.14565357
  699      1      20.99554516       11.79479150        3.65272764
  700      1      23.49205363        8.31696069       21.63506193
  701      1      21.16134542       27.57218585        5.19997291
  702      1      25.06151438        8.75685512        8.73664401
  703      1      10.69898338       23.05541884       21.13100037
  704      1      10.52805019        6.81735969       11.99118466
  705      1      23.12263222       21.53658079       14.96131692
  706      1      19.26988123       15.83021404       22.05134567
  707      1       0.23070386        3.12371111        3.57913947
  708      1      10.75137229       26.74783600       21.46799232
  709      1      14.99676474       19.30566019       14.32690479
  710      1      16.38713177       27.57144706       20.56852073
  711      1      23.30492875        4.45403654       25.61234947
  712      1      14.51734012       17.37605244        0.45128681
  713      1       8.68014391        0.54024696       24.14684280
  714      1       5.45696039       17.71413339       14.61396049
  715      1       2.42376737        6.48713453       19.92363452
  716      1      16.29643723       20.09605924        9.79444108
  717      1      10.15988291       18.99434675        6.31924122
  718      1       1.40432358       27.58169817       13.41684961
  719      1      11.32623504       10.68108533       25.45450373
  720      1      25.49241654       19.58651265       15.96221981
  721      1       1.98816511       20.02248845       18.04754050
  722      1      19.15652752        2.61146107        3.79858386
  723      1       3.72376778       10.09054584       27.34997218
  724      1      24.04028053        4.80692102        4.28363071
  725      1      12.28951597       11.81250319       27.39352246
  726      1      10.07953971       13.33270577       20.25203612
  727      1      23.34391847        8.84306219        4.28608243
  728      1      13.72155479        1.93803208        5.92977567
  729      1      23.43945901        7.30483289        7.91551192
  730      1       0.11749052       16.04353708       24.36744398
  731      1      26.72324312        2.70520432        5.62407840
  732      1       0.39452753       21.20284881       25.13752596
  733      1      26.26948919        4.41044103       19.30829768
  734      1       7.22033123       17.91909004       17.86715052
  735      1       1.48130052       11.56728592        6.00472204
  736      1      19.24291739        2.08250706       14.18274588
  737      1       7.70051636        1.79241018       20.43120180
  738      1      20.97422971       14.35568626        6.47381732
  739      1      12.90012206       11.56644893        7.48226405
  740      1      13.76737630       18.68151251        7.78951696
  741      1      23.18630916       14.52532248        2.87449988
  742      1      19.13546633       11.49231035       15.94658444
  743      1       8.23624283       13.57892416       18.81753085
  744      1      22.92396508        6.78035089       25.24696963
  745      1       7.03729362       21.76558455       24.70989325
  746      1       3.38004440       21.36753832       10.64383020
  747      1       0.93638291        0.49265368       23.53030817
  748      1       6.05698346        8.74773080        2.49677414
  749      1       5.71268267       17.31534531       10.82450390
  750      1       9.99226089       26.23657867        6.53687805
  751      1      18.50420496       19.51826939        9.52729181
  752      1       9.21844925        1.72781066        0.07300913
  753      1      22.65952808        2.59606860       15.75168464
  754      1       3.75890316       20.26329263       23.86017561
  755      1      15.75196266        3.37022231        5.39877346
  756      1       7.12094079       18.85744449        4.43490529
  757      1      23.13006951       17.05907843       27.12472034
  758      1       3.82517594       20.26982700       12.71962449
  759      1      25.60969034        9.63805336       26.46615057
  760      1       8.79530746        9.00225850        9.34172957
  761      1       0.15893171       17.97355190       12.25679894
  762      1       3.16287332       17.18544821       13.98763150
  763      1      10.99312492       19.68871741       14.39299784
  764      1       7.42213786        1.66942409        3.63985700
  765      1       2.60572859       15.03655257        1.96529943
  766      1       3.73389176       17.75441788        4.13310015
  767      1      19.11928855       18.64839876       19.57764545
  768      1      14.59122141       18.09103063       25.89432715
  769      1      18.55253558       23.00071534       20.85093007
  770      1      17.12286973       16.51196723        6.51882147
  771      1      20.71255282        8.82861783       18.41924656
  772      1      24.41104963       13.15925622       16.26490523
  773      1       8.66392862       23.36010839       24.21633867
  774      1      13.98992674        1.90233478       18.52821173
  775      1      20.13621465        2.67632469        1.54779612
  776      1      10.46776534        7.24444239        9.67124943
  777      1      20.59704073        5.52491359       21.11966429
  778      1      15.64727865        2.95998952       12.84219012
  779      1      13.29050348       11.85291726       11.14613819
  780      1      19.45971705        9.09440356        8.73340129
  781      1       7.52196086       27.05943171       16.40811523
  782      1       4.79687246        7.70684993        9.99124846
  783      1      24.52473659       26.78926993        2.53744463
  784      1       3.62652465        5.99540063        0.47885004
  785      1       3.68937269        5.12446201       23.00388792
  786      1      13.62271568       23.46256853       17.72700849
  787      1       7.19288409        6.93759666        6.75119419
  788      1       9.79902619       13.72608320        6.32670552
  789      1       4.90597569        1.91963861       23.30454835
  790      1      27.20820789        2.15058293       20.29925397
  791      1      22.09323730       15.39769923       10.05400418
  792      1      21.53383773       13.50540259        8.67185932
  793      1       6.51141084       11.98943823       23.62069299
  794      1      23.97088944       12.20985207        6.04614198
  795      1       6.08768919       26.16087854       19.28581377
  796      1      27.46801777       25.04750197        2.43817848
  797      1      25.02612635       15.17274729       12.29964985
  798      1      25.72151781       13.66245069       21.92751924
  799      1      15.14448789       25.40366346        2.16424783
  800      1       4.52487152       14.25767226        5.43240964
  801      1      10.11186053        6.19626737       24.00263113
  802      1      10.67709206        7.50120300        4.30663181
  803      1      26.45528000        6.50437320       16.41737009
  804      1      20.06253316       20.85265490       23.68321760
  805      1       9.51808174       23.02701003       12.93717158
  806      1      21.08105962       23.59953545        5.93616135
  807      1       1.82144561        9.23454429       26.48085787
  808      1      10.77177136        3.20312123       17.49057731
  809      1      21.08298360        3.65657662       14.29319816
  810      1      21.00887866       20.08454939       26.95996383
  811      1      27.56577967        6.27880669        4.93779354
  812      1       8.51122124       16.99563257       21.52427856
  813      1      15.89612987        5.98907638        8.14898931
  814      1      16.53819464       11.81472413       26.77082604
  815      1       8.33246723       14.67301263       25.27925377
  816      1       7.55047482       24.65511460       22.61983409
  817      1      26.40549233        7.87705043       24.83799083
  818      1      14.54426877       10.94583424        0.03759761
  819      1      11.76148842        3.20383174       11.93091128
  820      1      10.84538739       12.37286555       14.41140174
  821      1       1.64573988       18.20534442       19.55471946
  822      1      13.77305033       21.03768951        7.66588990
  823      1       0.75338895       11.33891164       19.85862420
  824      1       0.76253160        3.63552023        8.99829656
  825      1      10.29798299       14.70170498        0.90639355
  826      1      27.41129762       23.87975958        8.92601695
  827      1       6.17245869        5.20926252       15.89118424
  828      1       0.86158178        0.90326973        2.97269934
  829      1       5.86478821        5.60515692       22.11054327
  830      1       8.81744782        9.67354911       11.70442320
  831      1      26.64743975       10.92134106        3.45191911
  832      1      19.62149257       11.25683186        5.49085668
  833      1       2.21007967        5.41205982        8.50679814
  834      1      15.52055084        0.01735439       15.17180836
  835      1       4.08735381        0.91821017       21.39843232
  836      1      25.87350570       12.27281206        1.69296105
  837      1       8.36774589       24.63421710        5.71394562
  838      1       2.61228913        4.44616434       21.03323931
  839      1       8.04173938       24.65704999       15.96434855
  840      1      22.01445352       26.71853901       19.79379417
  841      1      22.21840827       23.18213751       21.46471988
  842      1      10.29487321       15.31916339       21.62164365
  843      1       5.22858774       18.79626396        0.42149051
  844      1      12.27313678       10.13314030       20.44031630
  845      1      24.96524679       15.67531490       26.60480083
  846      1      13.28647904       24.78900334       24.97105882
  847      1       2.24877751        0.53319845       11.20447193
  848      1      24.32539034       15.51950461       22.73357052
  849      1       5.92872221       23.26455729       12.83108016
  850      1      19.16681732        7.97755302       12.46116076
  851      1      17.50718699       21.44871816        1.81885070
  852      1      15.67558240        2.42322488       15.15591676
  853      1      16.71892158       10.67394843       24.62771418
  854      1      15.33162945       13.21262839        5.56946058
  855      1      11.65111784        2.28498083       19.50760445
  856      1      11.41635705       22.47838436       17.32169557
  857      1       1.91589257        8.47602907       14.13799934
  858      1      23.19192240        0.77182167       22.86555784
  859      1       6.87027822       21.07737780       15.44049887
  860      1       9.02381773        4.33644573        4.95167555
  861      1      10.47287383       24.31845457       16.01945169
  862      1       3.34121998        5.25143475        6.33779904
  863      1      14.26299008        1.48019252       23.22038514
  864      1      20.21087131       10.23118646       20.27339435
  865      1      18.53601777       12.41080098       13.77081503
  866      1      27.25022207       26.36749138       17.91254285
  867      1       6.79646916        8.18164899        0.31182937
  868      1      11.05274951        5.27118013        4.45657832
  869      1      22.74138510        0.28693029       27.22209965
  870      1      23.40076081       16.96170391       17.37597974
  871      1      20.97520232        4.69227331        0.59186438
  872      1       5.24809578        8.62049507       12.08614963
  873      1      25.01621380       10.06448065       21.29223633
  874      1      13.87101479       16.36314890       16.62208772
  875      1       3.42000800       17.02713080       10.20152539
  876      1       4.39011306       15.22755219       16.74094757
  877      1      21.85475326       13.81817834        0.99649328
  878      1       3.03159357        0.89035815       14.83531966
  879      1       3.13215910        6.60385511        2.79209666
  880      1      26.13869524       27.65456085        9.26682239
  881      1       6.78243200       11.29080213       15.96155950
  882      1      15.10312303       18.44079510        4.22224604
  883      1      22.96010301        9.28318232       18.16663912
  884      1      13.79833122        5.82923140        1.92295939
  885      1       5.29722987       26.32438990       10.84635866
  886      1       2.72636532        7.05078667       24.07069257
  887      1       0.39284784       27.65893163        7.87509083
  888      1       1.97247486       24.55483311        9.15661049
  889      1      18.82056412       17.24543977        9.79238144
  890      1      22.46322357       16.70777125        3.05727451
  891      1       1.51272769       15.51841872       26.28341847
  892      1      12.24879747       16.56919461       21.03440511
  893      1      13.65419040       21.90608259       11.77737513
  894      1      25.88767262       25.74544715        0.61626872
  895      1      12.17621984       27.18007494       27.42583753
  896      1       2.85294356       13.81699192        8.65068105
  897      1      19.55067656       26.05781972       14.53632965
  898      1       2.96377740        8.85801144        9.04149959
  899      1      22.81453853        4.40289157       21.44856367
  900      1      25.25447213       26.61287806       13.32765944
  901      1      17.52310973        7.20745445       22.91623438
  902      1      20.81210765       23.91832493       11.80511479
  903      1      17.15817673       25.89683177       14.39603903
  904      1      26.67822770        5.99120066        0.91689123
  905      1      17.74802741       14.38192990       14.77123608
  906      1      14.25000367        8.74855569       27.00039160
  907      1      17.10179280       26.89250644       18.31528114
  908      1      23.92565847       27.60110579       20.79602584
  909      1       0.62077224        2.81321381       16.75485515
  910      1      11.27105344       26.16038352       17.27108520
  911      1       9.60283902       26.08981213        2.10830543
  912      1      26.77629694        7.83800117       10.14184117
  913      1       6.02834808        2.50807288       10.90850701
  914      1      20.41023336        7.81155564       14.64778031
  915      1      22.06927610       26.44901407       23.58143256
  916      1       6.75392910       11.33222333        5.36922094
  917      1      24.57713869       22.19272182        3.36581327
  918      1      22.20558620       20.21291172        1.32617073
  919      1      26.52330066       10.08971372       17.37033814
  920      1       5.38006353        7.34878726       15.47566583
  921      1      11.30463030       12.06265367       23.52773148
  922      1       8.92508703       20.94063871       13.98926375
  923      1      13.56238213        5.20008965       22.58408163
  924      1      17.52119478        8.49937518       24.92723855
  925      1      17.29058829       24.52489185        5.16927265
  926      1      26.12202370       15.00639756        8.67279594
  927      1       5.74229376       18.83147903       12.58811204
  928      1      11.80724917        0.32923734       14.17305604
  929      1      16.48275718       12.03450267        9.05222071
  930      1      13.65189601        1.25936448       26.74424777
  931      1      17.61084441       19.19548726       17.76125342
  932      1      19.66519925        1.16809502        9.29463748
  933      1       3.51467096       13.06678802       17.26621074
  934      1      20.02911088        4.41646947        5.01750611
  935      1       2.24571609       26.92267690        9.09264978
  936      1      20.96642408       15.73922003       20.14444340
  937      1      15.44698974        7.31871186        3.04477000
  938      1      14.90665375       10.59731942        2.31202090
  939      1      22.41510481       11.95900970       12.96334290
  940      1      14.68899024       11.81344325       14.40069011
  941      1       8.14762003       22.21198273        5.59048517
  942      1      15.70740835       17.16625997       15.14958039
  943      1       5.71512785       21.99299301        5.77539036
  944      1      12.62727932        7.73352111       19.93369582
  945      1      12.23595453        2.14233995        2.34098081
  946      1      26.11737704        4.26439041        9.44239669
  947      1      15.44872438        0.51052620       25.33190719
  948      1      12.50089971        8.31244314        9.13013952
  949      1      15.43842096       22.22460331       18.82603009
  950      1      21.38175499        3.21881938       24.95407436
  951      1      25.25625617       20.73682867        8.54841021
  952      1      10.38484885       21.68578586        9.23330240
  953      1       8.69050064        9.42772246       21.79211994
  954      1      18.02903779        7.49983782        7.44485005
  955      1       9.99176900        2.81718339       10.23835036
  956      1      23.69094336        8.02803222       12.75705276
  957      1      21.03851073       15.19069180       25.18622882
  958      1      13.46234883       21.68733547       27.07401644
  959      1      13.60699722       24.46791936        8.56880225
  960      1      15.17700153       15.97316484        9.73441769
  961      1       9.65269306       13.40924825        9.92421356
  962      1      21.04824155       17.14022340        8.94415763
  963      1      26.95296801        2.40404309       12.21878993
  964      1       6.10046943       27.13720681        6.82268304
  965      1       8.62883582       14.70225918       11.72274113
  966      1       8.00548866       20.84860235       26.61184873
  967      1       7.38680134        8.89420366       15.40444621
  968      1      18.36552664       11.27970887        0.73646354
  969      1       4.52279677        7.45893363       20.75177830
  970      1      11.74302211       13.15990554       18.52969768
  971      1      26.29075136       21.22582217       19.48488867
  972      1       0.34401640        8.07087291        6.46977271
  973      1      18.32381199       11.67271192       23.10126890
  974      1       4.62116751       22.94492853       17.67254797
  975      1      11.23326075       10.03149186       14.64310710
  976      1      25.08919313        1.49274523       24.06640134
  977      1      19.75986008       22.42088503       13.40963299
  978      1      25.92178541       12.30744292       14.72725032
  979      1      17.18744965       27.28358898       11.15128573
  980      1       0.93022959        0.68089955        0.59262100
  981      1      14.15683453       11.55885506       20.71864574
  982      1      23.23657531       25.91755556        7.71108515
  983      1      15.15921491        3.42845317       22.24034508
  984      1      24.22302698       13.48684867       25.83431931
  985      1      12.79738622       17.33475745       18.69806230
  986      1      25.83112713        4.85779621        5.75007744
  987      1      14.88038132        5.76666478       17.33754310
  988      1      11.55577348       19.83211857        4.62432077
  989      1       3.55403043        3.26901158        2.89337132
  990      1       8.60749840       17.32714202        5.53883353
  991      1      25.80046693       13.60687665        6.52318996
  992      1       3.92350529       23.64835015       23.18024999
  993      1      17.58470800       16.94827232       16.77054630
  994      1      13.30056831       25.52957828        6.25058516
  995      1      22.36299674       13.34548700        4.75544750
  996      1      24.50103491       18.55782653       13.87862820
  997      1      19.21536322       25.24151260       20.87040052
  998      1      12.29860590        5.44354089       12.43009883
  999      1      14.31521302        2.17085755        1.07681898
 1000      1      18.07236205        9.66494130        4.68574119
