run_id:  1009  total_energy:   -3025.6466073689585

  1000 atoms
  1 atom types
  0.0   27.664  xlo xhi
  0.0   27.664  ylo yhi
  0.0   27.664  zlo zhi

 Atoms

    1      1      27.65913147       18.77758867        6.73259045
    2      1      14.63905219       18.57783044       19.62546200
    3      1      19.83256443       15.24811889       15.89151025
    4      1      17.39347715        8.34918306       17.15631821
    5      1      12.80982644       12.81245076       13.23575748
    6      1       8.84888443       16.64999152        0.73971041
    7      1      13.88454410       23.97763063       26.99623626
    8      1      24.91328463       22.93346031       12.33505626
    9      1       0.64256409       25.99965518        6.05353522
   10      1      26.78762497       27.58835814       27.02930248
   11      1      26.35898254       24.07910932       26.39411519
   12      1      24.72364561       12.81921782       12.65352084
   13      1      11.73439072       16.38130447       11.39237141
   14      1       8.78421922        2.83266760       23.38235224
   15      1      22.29879115       12.23827981       22.83489334
   16      1      15.97234246       21.57198835        8.00126236
   17      1      22.66433964       17.34089103        5.37812328
   18      1       5.64440209        9.40098839       26.31172631
   19      1      25.01401380       10.28311700        5.07839789
   20      1       8.65817761       12.93675608        1.27437460
   21      1      25.63527067       18.07708600        1.80555367
   22      1       2.95274932       23.64036725        7.12706862
   23      1       4.99240547        2.32014646       17.95859620
   24      1      10.40773175       14.37075196       23.85746532
   25      1       0.36565719       14.93776339       19.05712281
   26      1      27.41605236        9.49830223       21.19498660
   27      1      12.89939780       18.15751202        3.63618340
   28      1      22.28455278       19.06528746        9.38238647
   29      1      17.73307610        3.21181427       15.55706191
   30      1      27.16839812       22.39697676        5.36440459
   31      1       4.80723586       21.76463403       14.23770069
   32      1      16.69726319       18.84174035       22.86865496
   33      1      16.95489938        2.92638662        3.35719590
   34      1       9.65720298       16.73080824       12.33228099
   35      1       8.22408172        6.08253387       12.53701585
   36      1      15.74415743       27.18393238        3.59564985
   37      1      10.63722706        6.59149277       20.11201457
   38      1       7.07977273       26.93355221       23.00570501
   39      1      21.88960490        2.74446781       18.07001257
   40      1      10.73176997        0.53517452        1.29281767
   41      1      10.81688662        7.14632469       27.64931052
   42      1      10.62346939       25.35323886        8.64959198
   43      1       4.50125461        0.66748047       11.48498240
   44      1       8.92584523       18.77845515       23.14725780
   45      1       1.36282906       13.16855531       26.41630752
   46      1      23.71987652       11.01498671       19.49465408
   47      1      14.36075728        7.66891178       14.47637493
   48      1       6.63072831        5.01001893       25.69868085
   49      1      15.01095685       20.38304063       25.94411197
   50      1       9.77077971        4.83365998        8.97081545
   51      1       1.40273954       18.50496990        1.05568065
   52      1       7.38351456        2.40970847        1.28775716
   53      1      24.50839489       19.95884587       22.71997879
   54      1       0.31665168       21.47603848       13.30032335
   55      1       6.86224175       21.94209318       11.05280843
   56      1       4.66291345       24.47490606       19.58298181
   57      1       1.87785192       18.84169065        3.33332484
   58      1       5.75472150       11.75055751        9.30138684
   59      1      27.18432706       11.72839308        7.36336532
   60      1      23.35168366        4.42062737        0.20357025
   61      1       2.39563827        3.05922652       15.24140601
   62      1      18.79912057        0.72550084       23.30824382
   63      1       8.11375749       11.66794120        9.24396195
   64      1       5.42790588       27.57398851       17.39126626
   65      1      20.44021030       21.77759621       21.59670462
   66      1       7.08971912        5.13281541        3.61636616
   67      1      15.94751260       13.21200828       15.95690638
   68      1      24.44708248        7.23717901       23.54340645
   69      1       0.19222503       12.29714172       24.60827830
   70      1       7.17425384        2.98975387       18.43470682
   71      1      10.38091920       17.37838189       14.61199905
   72      1      13.73888082        9.71832851       17.35219710
   73      1      13.30259948       21.08670323        1.56652350
   74      1      24.83922322        3.51968419       14.78889763
   75      1      26.35835498        1.84325225       15.76257252
   76      1       2.66363328       10.67711944       10.63635648
   77      1       2.62569244       23.58559278       11.11064123
   78      1       7.68109639       20.01086503       12.15857203
   79      1       3.83574632       16.84977806        7.77902800
   80      1      23.75014079       26.56054674       16.57800731
   81      1       6.99112109        7.53483283        9.03208307
   82      1      18.81682479        4.00240874       21.35437518
   83      1      11.04746847       18.97580701       26.24959721
   84      1      14.75465624       27.40548581        5.80950942
   85      1       0.70492717       21.97431381       18.55697904
   86      1       5.66941316       17.97684490        2.75684121
   87      1      26.83234928       25.13518526       19.89235988
   88      1       9.54092332       14.98390910        8.23747123
   89      1      25.29466608        3.80762715       24.46354729
   90      1      24.21576334        5.80761239       15.86085752
   91      1      11.78099731        4.49869234        2.42042454
   92      1       0.55667413       12.58983162       15.64231252
   93      1      20.01510871        0.35675161       15.58834884
   94      1      16.10746117       10.25776141       20.34699124
   95      1      22.83098940       14.23400201       24.07006668
   96      1      17.75844240       20.83104590       23.75035858
   97      1      10.12279200       19.78033884       19.79848789
   98      1      12.97189961        9.46252595       11.22084586
   99      1      25.51783244       10.07936432       15.26850654
  100      1      27.53782210        6.24349188       26.29162705
  101      1      22.76439799       11.58233185        8.04274431
  102      1      15.04644263       26.03684095       23.99688617
  103      1       8.99271216       14.69325605       16.85300708
  104      1      18.84541645       22.87388844        5.10111448
  105      1      17.89329447       26.48914471        4.10660285
  106      1       2.91800800       25.46584999        5.73083107
  107      1       9.69096446       10.01484997       18.13724743
  108      1      11.20971647        5.35200188       22.11990011
  109      1      23.78582786        1.42224464        2.60576570
  110      1      16.06496720       24.51874948        0.01278327
  111      1      13.85276333       13.62598930       19.49438424
  112      1       1.77389944       15.70101470        7.47687165
  113      1      11.09828505        6.92026971       16.51588224
  114      1      12.87630411        7.74239561        0.96568399
  115      1      23.79326601       24.42094814        9.42448183
  116      1      17.17575686       14.56141612        5.23330337
  117      1      19.85377190        4.88448836       25.92970313
  118      1       8.67477870        2.38087586       14.71463120
  119      1      18.92779971       18.93353363       13.08632155
  120      1       8.90292290        2.12535627       17.05089502
  121      1      12.55195332        5.88384115       14.81242916
  122      1      18.14523192       15.16254572       27.09142114
  123      1      26.95490454       14.24766488        4.60023239
  124      1       5.82136422       19.24161464       16.48143645
  125      1      14.48053809        6.79331978       21.03654193
  126      1       2.62988008       12.35834566       20.88492246
  127      1      19.65000834        6.28745609        3.73238296
  128      1      11.11660532       13.92323184       16.26945274
  129      1      20.85103379       16.61119510        6.66040378
  130      1      14.93371721       22.22119110       20.98032298
  131      1       5.06607271       11.01257079        7.08509088
  132      1      14.88550759       17.19732283        6.22520696
  133      1      25.15381001       25.20767084       15.21289268
  134      1      16.87277934       22.74671019       22.50318299
  135      1       5.20325379       23.20598215        7.62981955
  136      1       6.08680519       20.98062700        0.33089591
  137      1       9.51132611        2.01380175        4.96643279
  138      1       3.03560133       19.44638153       27.30996066
  139      1       6.27182920       15.02159696       11.20969516
  140      1      12.99179000       15.80549677        3.84996661
  141      1       9.61660493       24.48063358       26.10821031
  142      1      26.85732168        0.66113848       13.75262125
  143      1       9.16719480        9.69446985       25.60489683
  144      1       3.89378173        9.01387641        6.87220466
  145      1      17.16368827       23.46466720       10.82388700
  146      1      21.62542213        8.59812314        1.01783430
  147      1       1.72939816       21.90503310        5.86802669
  148      1      11.44072878       26.90357314       10.26774196
  149      1      13.75202373        1.83155616       11.98271506
  150      1       7.35320077        1.17645162        7.90610503
  151      1       0.40125208       12.15241098        0.60659448
  152      1       0.10029682        9.14869692        2.39957839
  153      1      15.42391169       20.60582122        4.75764902
  154      1       7.80212265       25.62184704        3.64368271
  155      1      14.09255457       14.38738122       23.40321960
  156      1      24.70194542       17.67605164       19.22070305
  157      1       2.15279983       24.92111955        1.63001196
  158      1       8.72942293        8.28982853        5.43402874
  159      1       1.26443945       14.16739467       12.24302593
  160      1       2.12437069        6.91180863       26.37014963
  161      1       4.26225473       20.59921234       17.91846781
  162      1       5.51152828       16.35983730       18.46610455
  163      1       5.06540520        1.13729260       13.77219405
  164      1      27.45201638        7.07689294       14.33015229
  165      1      13.32625400       14.85024328        8.56959717
  166      1      19.48149063       23.59591851       26.77111752
  167      1       5.82764881       15.26337375       14.89806119
  168      1      11.02514350       18.62072317       17.93248619
  169      1      14.64483287       18.26749734        9.86910415
  170      1      26.61126204        7.24345917        3.01278838
  171      1      11.50633373       24.50559717        2.76035639
  172      1      20.62895193       15.32625567       12.11266036
  173      1       7.34560764       17.97186146        9.28677253
  174      1       1.73231583       14.49224268       21.28543037
  175      1      16.33962628        9.17029773        6.29888262
  176      1       2.22658765       21.14856398        3.65567388
  177      1      18.09637738       13.55853442        8.58245459
  178      1      25.72709745       23.32257625       22.57198904
  179      1      11.49486344       18.22055889        8.04957860
  180      1      25.54503914       17.94753756        4.09232583
  181      1       8.27926919       25.23012930       18.99428296
  182      1      22.53396657       21.03692824       18.73008988
  183      1      15.38932944       21.74787899        2.77200075
  184      1      21.12100253       26.87337181        2.94226639
  185      1      24.97399440        1.48444850       19.36496426
  186      1      21.92441134        8.31422390        6.15848271
  187      1       0.92977146       23.37630502       26.16306445
  188      1      12.57606549       18.42815567       22.57469580
  189      1      17.49494437       22.60952989       27.45409486
  190      1      14.91500052        5.53788712        6.07876769
  191      1      14.26446252       25.55740581       12.35745862
  192      1      10.82270393        3.08762157       21.99891051
  193      1      25.76965946       25.28950680       24.02498780
  194      1      21.80474864        0.98554213        1.61738614
  195      1      10.27515324        3.55082277       26.72320561
  196      1      18.03580425       24.71497039       17.49087414
  197      1      20.90942031       20.77352629       17.06219043
  198      1      16.55021309       25.34864553       12.25284133
  199      1       3.40509910       26.90496262       16.42706683
  200      1       1.22701229       18.08616471       10.16087812
  201      1       3.99161752       15.94255666       26.20279478
  202      1      16.02766224        5.78774423       19.39448369
  203      1      22.00975861       20.52583088       11.27012795
  204      1       3.78785776       24.86383378        3.42897816
  205      1      18.27902937        5.70790307       12.34321311
  206      1       9.15641846       10.58630857        1.87033699
  207      1      26.80263678        5.53022406       21.28627205
  208      1      26.26977452        7.93354588       18.30989733
  209      1      26.87724699        4.87183246       13.19355093
  210      1      12.94517490        8.98774237       25.09940971
  211      1       4.70144203        9.29584270       22.35418552
  212      1      24.94495674       22.25645946       26.77134693
  213      1       0.17396152       17.84770305        4.68193984
  214      1      23.17776691       16.73345253       20.97180171
  215      1      13.18654423       25.92821414       18.13067119
  216      1      14.14359600       15.28112183       21.18776858
  217      1      26.25859071       15.96156312        0.99472568
  218      1       4.88451314        3.20453833       26.39946434
  219      1       3.78035848       18.64376400        6.32865473
  220      1      20.48656070       10.72556148       23.78093893
  221      1       9.91410430       22.35664966       27.23871795
  222      1      11.39225125       26.01093805       25.47399811
  223      1       1.73113298       12.30418887       13.60616025
  224      1       9.78526574        8.86759601       16.10681436
  225      1      17.30295665        3.78744929       19.56413547
  226      1      16.53890270       11.41268994       12.91847530
  227      1      25.54267593       14.38706113        2.61421826
  228      1       6.15945042        5.98377655        0.12000996
  229      1      13.65998218       12.07370593       22.99267701
  230      1      26.69210904       20.19877785       21.58239423
  231      1       7.61765478        5.61266612       10.25578404
  232      1      22.59893911       19.77077205       13.47679824
  233      1       4.40326035       12.16812914        2.34081981
  234      1       1.11876647       19.03565494       21.62450578
  235      1      21.38341511       16.12410560       14.14177835
  236      1       1.80214726       27.06631770       18.21783995
  237      1      17.07453273       24.92687076       23.62583168
  238      1      20.16828661       23.96368878        1.34921730
  239      1      14.20230031        6.09840703       11.43841566
  240      1      22.30627341       25.23108627       17.97360389
  241      1      14.67855577        9.97098222       23.67569029
  242      1      19.54603002        7.81878736        5.40880598
  243      1       5.42421346       18.68707545       23.72525996
  244      1      24.85791427        2.75234486        0.90409085
  245      1      12.14719202       12.82341226        9.41842501
  246      1       6.87267160       24.97238544        7.50520285
  247      1      19.00710346        5.05773252        7.12774302
  248      1      12.17560689        3.65626612       15.82558912
  249      1      22.53427614        9.80709783       11.63024419
  250      1       1.40579378       18.85489690       16.10176130
  251      1      16.08932989       14.16341006       26.60328848
  252      1       3.01330746        1.16172113        3.73595799
  253      1       5.18227030       13.10976228        0.26740772
  254      1       5.74590879       23.47245524       21.50761036
  255      1      11.84379664        6.84566590       25.46643953
  256      1       0.99471162       15.75059247        5.22142021
  257      1      24.26106077        0.26394766        7.84299668
  258      1      24.64973919        5.17039224        7.75108543
  259      1      15.47222434       27.57642691        9.58036451
  260      1      23.35102764       18.12366347        1.55209982
  261      1      21.14248971       19.95990268       20.35046376
  262      1      25.53274785       16.72926649       24.56857796
  263      1      24.92047063        1.30232209       26.62441739
  264      1      19.97075631       16.91374553       24.11966653
  265      1      12.82141509       18.71486702        1.45088107
  266      1      17.44815673       21.16254829        6.15322191
  267      1       7.56745555       26.66463621       10.75927848
  268      1       9.36209587       24.98797447       21.04859247
  269      1       6.91419178       19.95518293        8.20767563
  270      1       5.42001778       21.53602338        9.31245746
  271      1      16.36815148        3.66461308        9.43658323
  272      1       4.90354584       10.92605876       11.65062071
  273      1      21.78428470       12.02286755       20.41969342
  274      1      16.03099320       21.50390492       11.61306629
  275      1       0.02084310        9.83832645        0.12525710
  276      1      22.26313095        3.77323050        5.47558535
  277      1      17.81742214        7.25643159       19.15718995
  278      1       4.87216450       17.15232743       21.96696737
  279      1       8.90025205       22.95011558       10.54194891
  280      1      20.34550791       24.70197574       16.50385941
  281      1       9.63913172        9.63740761        7.11312256
  282      1      26.78039620        0.86635587       22.27925258
  283      1       2.00860392        4.98120351        4.25370917
  284      1      20.91805091        1.15515321       26.02441394
  285      1       2.61035524        5.85615744       17.64120827
  286      1      22.79484648        7.69532519       14.83541700
  287      1      15.49381498       12.60054903       11.15854091
  288      1       4.37942903       14.69639862       24.25786982
  289      1       1.44744642       10.31045885       24.31139338
  290      1      21.42791410       25.38495403       21.62006699
  291      1      10.39185483       11.23629378       21.56082618
  292      1       4.09562229        4.10578244       16.60507077
  293      1       2.87402921       20.63397891       21.71631363
  294      1      23.50930663       25.79031741       27.16570063
  295      1      20.69951383        1.02375464       19.43153795
  296      1       0.10016868       14.09789559       23.02138148
  297      1      17.85593505       17.55531841       21.27423244
  298      1      14.28857715       15.02412063        0.26019801
  299      1       0.55281775        8.45646067       23.31987571
  300      1       4.81905720       27.10525503        0.56170276
  301      1      19.33777115       25.31866794        8.56893243
  302      1      14.65560716       14.64903260        2.51078474
  303      1       7.24778230       11.05870375       25.64585630
  304      1      17.25974705        4.35465641        1.56578063
  305      1      19.96852301        7.17000745       22.61290107
  306      1      16.71413947       23.92793220       15.58684115
  307      1       4.09148675        9.92287189        2.03684079
  308      1       1.55162604       20.31392136        9.41683071
  309      1       9.47328030        0.83707711        7.05604049
  310      1      24.91927962        1.04598257        5.78119021
  311      1      20.13805309       16.95555770       18.14912366
  312      1       0.97315445        3.02211890       27.60455164
  313      1       3.11108467       10.99480007       22.78329411
  314      1      23.78466334       22.20711720       23.04852360
  315      1       1.38598111        1.67029166       18.74026899
  316      1      14.90595977       27.47328852       17.54803347
  317      1      13.20863220       21.41436095        5.43393755
  318      1      25.69077446       18.97977125       11.88100527
  319      1      24.60786323       18.47032533        9.74666164
  320      1       4.27406253       24.77551625       12.32990163
  321      1       7.76036535       24.34405823       13.62558946
  322      1      12.54316096       17.64386667       24.86860266
  323      1       2.04429006        9.34412687        5.52712708
  324      1      20.29476156       12.99722734       12.30312204
  325      1       9.92102371        0.72900528       19.93215666
  326      1      23.75635204       22.56857731        8.00444966
  327      1       8.35291091       26.46863517       12.85156096
  328      1      23.45148460        5.97726234       11.51811550
  329      1      14.82770123        7.69863636        5.21871980
  330      1      21.34737906       22.40832358        7.97431040
  331      1      23.77010239       16.27088262       13.96719015
  332      1       3.79355387        5.18872420       12.54376767
  333      1      22.56980970       18.80829646       21.87384328
  334      1       0.68461752        3.81191664       21.88141182
  335      1      11.01580027        2.23108534       14.25724084
  336      1      26.33636409       21.20000338       11.71773854
  337      1      19.68222191       20.58938290       11.50094823
  338      1      24.85037225        5.19743421       22.59761079
  339      1      19.87879321        4.38201002       11.01729880
  340      1      18.99338436       19.67341108        7.22474055
  341      1       8.74457419       13.06326881       13.41670819
  342      1      11.45092476       11.04258807        1.92923726
  343      1      18.78311138       19.20104458       27.11596074
  344      1      26.86603533       15.90477537       15.43094472
  345      1       3.56958806       25.87818708       23.92601397
  346      1      10.09153954       21.99379116       19.16808689
  347      1      24.09430600       10.92690683        0.85971952
  348      1      13.48532599        5.12782726       25.07292470
  349      1      25.88372864        8.62108085       13.47713650
  350      1      26.24845497        9.57731260        6.93008708
  351      1      18.21971019        1.11989084        7.27552562
  352      1      26.76236676       23.03893366        2.95745238
  353      1       8.12162479        0.30168365       26.38444611
  354      1      12.94149178        2.30678295        8.24543509
  355      1      19.75876808        8.98532587       25.45959906
  356      1      16.12038646       14.91783211       24.35660436
  357      1      19.73585390       12.43939457       10.05429689
  358      1      18.18575909       13.28347027       19.17999851
  359      1      22.64597466       18.87661041       25.74199808
  360      1      25.91092187       25.28911863        9.85340088
  361      1      15.13371171        4.38107385        0.65859679
  362      1      12.38248106        3.03887594       25.68930762
  363      1      10.16036429       20.39455162        2.74138601
  364      1      26.23737237       24.82002358       12.00782658
  365      1      16.18816701        1.14137062        2.09042698
  366      1      19.01299442        0.74037899       17.78890157
  367      1       6.62361844        6.75727190       24.01493871
  368      1       6.64214972       15.70430074       21.69644177
  369      1       8.39912570       25.88564074       27.54500500
  370      1      15.44779291       20.08042907       18.06146268
  371      1      10.86239670       27.49554180       23.68454604
  372      1      26.95494946        3.74755002        1.45549270
  373      1      23.16204559        5.75231321       17.99470196
  374      1      14.37195580       12.58565127        3.48037654
  375      1      16.82039573       15.44665212        3.00220629
  376      1       6.21324273       14.50029584       19.71666237
  377      1      26.08478881       20.51909936        6.35276081
  378      1       9.04649447        8.36166217       19.78349541
  379      1       3.95338660        7.34233557       13.57597709
  380      1      27.04151403       12.80002098        9.50472620
  381      1      24.64730628       19.94452834       18.29600724
  382      1      12.71443903       22.30561442        9.43684128
  383      1      13.02599311       23.70063495       21.30594687
  384      1      23.92881113       10.47652281        9.80851850
  385      1      18.11349798       11.38316567       20.77804189
  386      1      14.23320657       20.61102647       16.09745952
  387      1       5.81005915       19.70536831        6.19101536
  388      1      27.08478566       19.76321824        0.82874697
  389      1       4.13703107       17.76650653       19.86885759
  390      1       1.06135955       10.94633682       17.34218074
  391      1      11.10840678       22.28331263        1.73170115
  392      1       1.58609262       17.63350966       23.50192727
  393      1       3.74803049       27.25959540        7.09042810
  394      1      26.71787020       21.58962488       15.23692915
  395      1       7.37690086        0.44175033       14.25377251
  396      1       4.56155279       27.19940922        3.01429603
  397      1       5.51051132        3.51024543       13.07783119
  398      1       5.60760391       15.34040240        7.32543697
  399      1       6.32529012        0.05630451       20.88698786
  400      1      27.04849171       17.92680040       16.56146117
  401      1       8.96425885       18.50203954       10.91163267
  402      1       7.89522210        1.29954748       10.21050565
  403      1       1.80307873        4.16829589       13.17725593
  404      1       5.68908887        3.32359355        4.05044953
  405      1       7.41216980        8.25295750       13.01519404
  406      1       1.05642538        7.46678338        8.66884939
  407      1       2.70936810        9.67299756       16.10317186
  408      1      25.29964095        2.21639885       10.38870866
  409      1      19.30529365       26.81573426       10.38932277
  410      1      18.39770383        2.70755102       10.47939421
  411      1       7.57209465        5.38812153       17.88657562
  412      1      18.34976673       17.23375428       25.86195248
  413      1      11.85874933       10.88262208       18.33817133
  414      1       6.17493018       25.19924883        0.20910973
  415      1      14.51222770       21.28453899       23.87596263
  416      1       3.06751225       15.62488636       12.23850208
  417      1      12.21406447       14.22957155       27.12842057
  418      1      21.65912356        1.56031088       10.66578588
  419      1      22.94108292       27.66117036       12.90508729
  420      1      10.69490367       26.43251218       12.67284893
  421      1       6.60377202       10.54069549       21.76469518
  422      1       0.61877807       12.42625509        4.11573301
  423      1       7.74492822        9.77668825        3.80551986
  424      1      19.60435348       23.29999563        9.82875024
  425      1      20.71790025        8.43867595       10.68664213
  426      1      22.62523043       24.19612471        0.98920842
  427      1      17.28827025       20.76992820       26.05770234
  428      1      12.71662976       18.51661226       11.19896342
  429      1       3.42066698       25.08662748       14.73720777
  430      1       5.85031204       12.99014719        4.04005737
  431      1       7.41415407       13.01524006       26.95760037
  432      1      24.89482680       22.91594248       14.59900875
  433      1      22.83002491       22.87178846       11.18797499
  434      1       3.57292469        3.32845853       24.38097525
  435      1       0.70206428       22.85363566       16.41142616
  436      1      21.03094496       25.76348314        6.86786627
  437      1       8.41618188       24.96882503        9.38101674
  438      1      15.94106876       23.76654914        8.76420586
  439      1      12.98067271       25.38245992        1.11769718
  440      1      20.71278396       13.12515406       16.68261789
  441      1       3.83577367        7.93484383       17.14195283
  442      1      17.24341837       25.16448542        7.46564371
  443      1      17.27459258       15.77404893        8.75520605
  444      1      10.11473914        5.07654413        0.83773389
  445      1      15.21557099       14.91116221       11.84973616
  446      1      11.01658654        9.07876716       12.54344198
  447      1       4.36123546       22.29551971        3.78418462
  448      1       4.93962786        7.03653739        6.02106416
  449      1      24.89139429       19.03454982       24.85523545
  450      1       6.46976328       27.36429388        4.37190263
  451      1       9.41571185       27.39727219       17.72629970
  452      1      27.56558606       26.71514585        4.00739173
  453      1      19.62890260        9.31420969        0.06126242
  454      1       2.01203583       22.90289079        0.47409287
  455      1       5.92931228       10.84610058       19.49966786
  456      1       0.62830282       21.66672817        1.92138479
  457      1      17.30234171       11.96169141       17.33455148
  458      1      11.18120269       24.30076093       13.69361149
  459      1       4.64043740       15.23384009        0.69293534
  460      1      22.03128766        3.95659100       12.16264077
  461      1      20.14415578        5.55322445       15.37235846
  462      1      19.80297319       12.84819796        1.87622705
  463      1       4.37310824       11.45788900       15.75232793
  464      1       5.30111063       27.54437336       24.45971827
  465      1      13.06662358       15.11089100       12.93711963
  466      1      23.17331009       22.81514060       25.21283260
  467      1      17.09372075        9.28379117       11.96594692
  468      1      24.53269986       20.02213041        4.71826280
  469      1      21.85695384        2.65845735       22.67951561
  470      1       7.73938159       16.40629412        7.58804482
  471      1       5.34764238        6.86791423        3.70332479
  472      1      25.62111631       11.68490176       25.06466014
  473      1      22.86295564        1.61416220        4.85835311
  474      1      22.49795033       11.99976898       15.42337139
  475      1      27.56519459       21.93393161       22.94984360
  476      1      11.45317439       21.25894470       25.89554966
  477      1      15.72872470        2.25893364       20.24295549
  478      1       7.73579506       11.43866796       18.13808763
  479      1      22.79446112       12.31925853       27.23163511
  480      1      11.84160303        1.29220759        4.51650294
  481      1      12.20612470        4.59944082        8.34850228
  482      1      22.23378324       19.63303869        5.36870869
  483      1      14.47810998       23.02887972       15.50943687
  484      1       6.71515609       14.44047672       23.62563125
  485      1      17.87305490       19.14313929        1.66621238
  486      1      18.68833466       14.94032377        1.73453126
  487      1      24.55191467       24.88875137        5.95096093
  488      1      19.42787113       22.21105637        2.94558402
  489      1      16.11280409        4.84045092       11.65606437
  490      1       9.27064057       17.14234936       16.82900627
  491      1      12.17455987       15.77984184       15.12824824
  492      1      11.87631360       20.34445163       16.45562050
  493      1      27.21422567       15.75947221       13.01193908
  494      1       3.20174293       22.99902689       15.71353916
  495      1      19.11205946       26.07413632        2.12004976
  496      1      17.75328709       22.75602539       18.66608110
  497      1       0.03732429       16.94479017        8.42842783
  498      1      23.52367446       25.15922764       24.93250835
  499      1      20.18559700       27.12899513       24.65472029
  500      1      24.60445479       15.48688676       15.95240967
  501      1      18.85051200       13.31086019        6.34480754
  502      1       6.38980287       21.98769352        2.37761251
  503      1      18.17508753       14.05854661       23.46479696
  504      1       1.67219275       19.35346523       13.60275737
  505      1      22.38688494        0.33627528       15.23682133
  506      1      17.89538281        5.37485761       14.72583050
  507      1      16.04168090       10.05492293       17.99390025
  508      1      22.05451338        6.73504317        9.73383691
  509      1      12.89850585        9.36214419        2.67183899
  510      1      13.83807682       27.55422493       13.53931146
  511      1       3.02762446       15.59623480        4.16474858
  512      1       2.47612662       16.44338262       16.14744511
  513      1       8.67446669        8.09280181       23.82298658
  514      1       7.92975952       16.83265003       26.25129157
  515      1      17.86985665       26.59618005       22.14230093
  516      1      12.69999672        4.76843297        6.07777689
  517      1      13.16902884       23.71137292        4.67131691
  518      1       7.10360645       20.17673317       22.98143849
  519      1       1.36311008       10.17445650       12.54358833
  520      1       9.98876726        5.52560230       18.05671746
  521      1      18.65216958       25.43176390       25.42835513
  522      1      23.21014508        1.98579722        9.01875150
  523      1       3.94926894        5.51898352       10.16830251
  524      1       3.10092362       15.92632392       22.69701057
  525      1       4.09390091       12.23325286       13.52699180
  526      1      16.36014533       17.28332220       24.64386881
  527      1       2.56208036       26.61809324        0.03841211
  528      1      12.88501486       25.99231882       20.59150443
  529      1      20.92048688       18.40954000       14.38227695
  530      1       3.95127233       21.80748738       27.13791051
  531      1       4.65461445        3.32094679        6.15885113
  532      1      14.80394703        8.23434225       12.19752239
  533      1       7.31151944        7.76633163       18.14947764
  534      1       6.48402557        3.33248092        7.56686861
  535      1       4.88149551        8.19791783       24.38366906
  536      1      14.27309837        3.44881852       16.80663977
  537      1       3.25622145        3.70336301        0.48715228
  538      1      23.74785403        6.76714324        3.07788394
  539      1      18.58556769       21.17049213       17.07526137
  540      1      21.09080246       22.64198735       15.39612051
  541      1      23.71494984        3.74787268       19.33380463
  542      1       1.19544985       23.83769741       20.10762395
  543      1      12.90203991       22.99622924       23.61607378
  544      1      13.39303789       23.61548772       13.38224740
  545      1       2.62584775       25.67269970       19.98637816
  546      1       3.02295411        1.58242662        6.08611931
  547      1      24.68187937       11.72634147       22.86097217
  548      1       7.95673022       18.91333405       19.90331000
  549      1      10.86327628       19.43229218        9.95431284
  550      1       4.69108857       22.19315811       24.84469944
  551      1       3.39452561       12.61556195        6.71822318
  552      1      23.88985339        2.37985499       12.65606493
  553      1      17.62806796        6.36724531        2.52798038
  554      1      18.54568300        3.10317165       17.71306860
  555      1      17.57000577        1.82506784       25.19905843
  556      1       6.79273431        3.24520569       22.22753966
  557      1      18.99507277        1.64478830       27.30631626
  558      1      17.79066388        7.93864471        0.79794798
  559      1      23.11597538       23.27236040       19.31549651
  560      1      22.80213480       25.34261071        2.90635706
  561      1       0.11707494        7.43000073       20.12099237
  562      1       7.73358618        4.75903397        1.43020867
  563      1       0.74917641       23.77554788       12.55373640
  564      1      20.27211726       16.65888894        2.21916012
  565      1       7.53790448       11.51623783       12.06621092
  566      1      26.79135105       24.25168482        6.60331110
  567      1      26.70075642       13.10222982       19.75631386
  568      1       0.84400523        2.12703765        7.09433747
  569      1      17.36748362        3.27258832        7.19180530
  570      1      27.39370965       25.01303410       16.00045995
  571      1      20.95073000       22.05992520       25.68801252
  572      1      13.67291663       14.87019134        6.13240372
  573      1      16.89952656       20.35529653       13.51770143
  574      1      25.52296155        0.30328990       17.40604794
  575      1       2.63007879       27.00593399       22.07165577
  576      1       8.91596616       18.79716358       25.51101683
  577      1       6.27305069       24.41477582        2.36439303
  578      1      13.12489087        7.47515029       17.72332055
  579      1      14.58664071       19.63021549       21.88875149
  580      1      15.71236495        8.53152943       21.96325533
  581      1      27.15500319       21.57031162        9.57149464
  582      1      21.27044261       18.79158063       23.82787837
  583      1      22.97010173       23.63837551        4.56884995
  584      1       6.66568269       21.06354043       20.76746520
  585      1      24.42399277       15.95869445       10.11930984
  586      1      20.64568721        6.87562263       24.85755456
  587      1      14.63876138        2.02399990        9.76050527
  588      1      25.86924806        5.79001901       11.15004329
  589      1      13.55156964        9.81157686       15.12804728
  590      1      17.21048053        4.75402118       22.96620120
  591      1      21.29092805       20.18012225        7.46488020
  592      1      18.66485017       16.78049656       12.10790737
  593      1       4.88028418       14.39340237       12.99040246
  594      1      11.05993147       14.73825176        3.12614535
  595      1      20.74151515       20.19575236        3.48350732
  596      1      17.85876455       27.63598012        0.75112865
  597      1      25.36120188       26.76329673        4.63818444
  598      1       0.20491739        4.97911163       17.50488889
  599      1       7.41712818        4.36558396       14.10207140
  600      1       8.91139504        4.42951017       25.06749585
  601      1       7.54454382       14.20858125        3.03410698
  602      1      11.44311612       16.11396015        8.98382162
  603      1      12.05576149        1.88276129       23.64881812
  604      1      17.57104071        4.20943826       25.20310594
  605      1      13.71930287        6.26082354        9.20218350
  606      1       3.56332977       12.23537216       26.50766474
  607      1      17.58501600        1.65028387       12.38347480
  608      1      27.13691440       17.16468930       18.85558248
  609      1       0.01341291       26.72778520       25.01250795
  610      1      16.24622958        6.82710989       15.75534090
  611      1      25.86599056       26.44816113       21.67552124
  612      1       4.48556875       12.72058419       19.41752839
  613      1      19.49230490        9.17079287       16.40716564
  614      1      25.37486282       23.29218990       20.11262249
  615      1      11.52099731       26.54165416        4.79065617
  616      1      18.02336790       10.43847322        9.98139571
  617      1       2.09016220       19.45145830       25.09857578
  618      1      13.66418106       26.15043938       10.17333602
  619      1       8.99300526       20.82106992        7.33272814
  620      1       1.94282400       19.96758237        7.10462190
  621      1      10.73139783       19.85904744       22.19531612
  622      1       6.88603405       22.82536647       16.94930396
  623      1      11.96709272        9.47581968        7.17573985
  624      1       5.81498951        0.93855687       26.65303931
  625      1      16.76487235       15.89485832       13.31417765
  626      1      15.27672239       11.32200811        7.12563229
  627      1      22.65446363        3.90152726        7.79388763
  628      1       5.83128888        4.25835875        9.59096192
  629      1      15.96163331       16.64939203       20.23876466
  630      1      10.64675218       22.03043430       23.39100186
  631      1      16.14743974       17.67008479        2.24015223
  632      1      20.60143622       13.60024148       19.10241219
  633      1      24.38027363        6.39913773        0.74819097
  634      1       0.85444828       14.70935319       16.67048631
  635      1       1.28813180        2.86875544       24.00288988
  636      1      17.86336627       21.98456541       14.92132103
  637      1      16.92319582       26.44664617       26.67867638
  638      1       5.68537579       17.64833762       25.98224227
  639      1       9.07822794        8.83495001        0.12717195
  640      1      24.73081884       22.84089324        1.46403774
  641      1      27.50842811        3.94636056       25.56543560
  642      1      11.01550911        1.20810335        8.90904733
  643      1       9.18018656       15.09996169        4.51527443
  644      1       4.61694615       20.11418360       20.13694380
  645      1       1.36952330        2.69993020       11.13478900
  646      1      14.51081976       27.11606017       21.88861541
  647      1      19.33161549       13.76758556       25.55064549
  648      1      21.32302596       15.78041745       27.49726292
  649      1      12.32393691       15.22879704       24.88113491
  650      1      21.42934398       18.41260560       16.72377163
  651      1      20.12142577        6.53427652       19.06639244
  652      1      26.91007379        9.65530352       11.70373857
  653      1       5.22051786       14.01877687        9.27966039
  654      1      25.29517587       12.04834804       18.19841248
  655      1       8.06271541       20.86388319        3.61372826
  656      1       2.03451625       12.78965708        2.27263662
  657      1      11.94734378       13.02291841        5.96055167
  658      1       6.66667871       16.04388596        1.82797586
  659      1      26.27251486       20.38659529       26.29168968
  660      1       7.87150701       22.66922234       19.06640040
  661      1      16.26292052        7.55646463       26.67573241
  662      1      19.29074304       18.41229328        3.42094047
  663      1       0.93860581       16.23714969        0.74119354
  664      1       1.22794591       25.38463537       14.16217287
  665      1      17.14642197        9.78571924        2.40979690
  666      1      14.95465310       14.53156806       17.57560878
  667      1      12.01707802       12.60428346        3.60890017
  668      1      13.00410309       19.87145166       13.00251627
  669      1      21.14876256        9.09862736       22.09338058
  670      1      20.74358176        4.97047508        8.84308276
  671      1      24.07536501        7.56329079       19.20906506
  672      1       8.56664503       11.75391080        6.82672253
  673      1       7.53827337       13.62830889       15.30418875
  674      1      16.39768697       27.29966360        7.48754640
  675      1       1.54703262       12.82408907       10.24611905
  676      1      25.68424912       11.54228892       10.93121626
  677      1       8.22838294        4.81137673        7.05526343
  678      1      20.40518170        4.71505533       17.58634188
  679      1      10.44243764       18.60150815        0.95622835
  680      1       1.93770196       22.76936012       22.05073814
  681      1       3.39003743        2.47833621       19.74513622
  682      1      12.64826621        8.61262719        5.02270126
  683      1      19.93306917        1.96685690       21.60717422
  684      1      15.30974117       23.82818714        3.78873817
  685      1      23.29917328        9.74997407       15.91433953
  686      1       2.30673654        8.83062713        3.19175766
  687      1      22.45412757       10.15822553        2.58332796
  688      1       4.23314460       12.31159754       24.29628709
  689      1      20.74303475       26.24437160       12.36221724
  690      1       5.28413421        8.60932593       18.86801608
  691      1      16.87678029       15.40064843       18.50185417
  692      1      20.95970355       10.21219099        7.23073037
  693      1      15.62563790        5.29094020       26.20936951
  694      1      18.92869219       17.75942870        5.83859151
  695      1       1.94070794       25.56494822       25.63938696
  696      1      21.36074205        6.52673654        2.15764449
  697      1      23.53868573        8.16595381       27.12332404
  698      1      19.02258086        0.66689291        5.15226350
  699      1      20.97950999       11.76670819        3.66821567
  700      1      23.49915467        8.33097545       21.63733775
  701      1      21.14595969       27.56327906        5.18965159
  702      1      25.05496481        8.73512759        8.74083104
  703      1      10.72223927       23.11149423       21.07038973
  704      1      10.51127927        6.74460248       12.06823261
  705      1      23.12126613       21.52621118       14.96796609
  706      1      19.28922170       15.86943766       22.08461341
  707      1       0.23692586        3.13097413        3.56991297
  708      1      10.78689619       26.76438782       21.39802686
  709      1      14.98364271       19.31067019       14.34733659
  710      1      16.43182840       27.59623355       20.59937810
  711      1      23.32707415        4.46842342       25.60536722
  712      1      14.51245648       17.38403629        0.44598958
  713      1       8.72030884        0.56551565       24.11042078
  714      1       5.43991040       17.71124601       14.59567867
  715      1       2.44185832        6.51169905       19.91184388
  716      1      16.26775664       20.07248210        9.81415905
  717      1      10.14945371       18.97762790        6.30781273
  718      1       1.37160460       27.55910573       13.37345976
  719      1      11.33194278       10.70419060       25.46711999
  720      1      25.48219132       19.58539825       15.95687024
  721      1       1.98647844       20.02754309       18.03252593
  722      1      19.14915057        2.60143150        3.80967646
  723      1       3.72992870       10.09783926       27.35336685
  724      1      24.03226230        4.79258997        4.28144646
  725      1      12.29033760       11.82451117       27.40921861
  726      1      10.08372255       13.37448561       20.25914466
  727      1      23.33833837        8.82682016        4.29624747
  728      1      13.70821433        1.92436400        5.96649406
  729      1      23.42908826        7.28249324        7.92313350
  730      1       0.11950527       16.06469386       24.37845058
  731      1      26.71507265        2.68358353        5.60659045
  732      1       0.45392206       21.21696389       25.10621767
  733      1      26.28979314        4.42255633       19.29471951
  734      1       7.22469724       17.93683738       17.85402302
  735      1       1.47658575       11.55428195        6.00867789
  736      1      19.22988045        2.07347456       14.20537490
  737      1       7.73424947        1.86376744       20.39351338
  738      1      20.93389443       14.28762418        6.51429577
  739      1      12.88112189       11.53495759        7.50226745
  740      1      13.74723674       18.66073296        7.79591390
  741      1      23.18075417       14.48124958        2.90078645
  742      1      19.13108202       11.49161939       15.96632887
  743      1       8.23773477       13.61913165       18.82275696
  744      1      22.93932807        6.79433708       25.24648359
  745      1       7.07094002       21.80262145       24.66481243
  746      1       3.34545456       21.35117317       10.60063225
  747      1       0.99006749        0.54081703       23.45303573
  748      1       6.06276751        8.74653908        2.50921801
  749      1       5.69349756       17.29846377       10.80403873
  750      1       9.98900863       26.22636234        6.53461657
  751      1      18.46620586       19.48020256        9.56392454
  752      1       9.23399592        1.73963875        0.06586455
  753      1      22.66020129        2.59328411       15.74843945
  754      1       3.78710209       20.28466711       23.83356931
  755      1      15.73756938        3.35619614        5.43011239
  756      1       7.11580165       18.85337937        4.41652802
  757      1      23.11394908       17.09038678       27.18786933
  758      1       3.79610001       20.25221470       12.67981175
  759      1      25.62054008        9.64240529       26.46175675
  760      1       8.79757215        8.95605943        9.38179056
  761      1       0.13600657       17.96618398       12.22765596
  762      1       3.14367218       17.18051281       13.97585987
  763      1      10.98630602       19.69010304       14.39125295
  764      1       7.43983294        1.67046707        3.64051569
  765      1       2.60483514       15.03299555        1.96140829
  766      1       3.72403116       17.76175864        4.11184463
  767      1      19.12877236       18.67579097       19.60112941
  768      1      14.60768603       18.12466925       25.89528849
  769      1      18.57188553       23.01217738       20.87253332
  770      1      17.07285180       16.46092122        6.55346725
  771      1      20.71044309        8.83899700       18.43049501
  772      1      24.40644680       13.16077123       16.26633190
  773      1       8.69451935       23.40005682       24.15267858
  774      1      14.03599646        1.91038641       18.61631981
  775      1      20.13198305        2.68963492        1.55343846
  776      1      10.45920884        7.18749609        9.73627260
  777      1      20.61522936        5.54646204       21.12793625
  778      1      15.60092975        2.88401119       12.90419983
  779      1      13.27175925       11.81655407       11.16931306
  780      1      19.44174501        9.06398228        8.75128802
  781      1       7.42057971       26.93167240       16.23530819
  782      1       4.79562743        7.68374951       10.01141910
  783      1      24.55102172       26.81221237        2.51026124
  784      1       3.64570951        6.00730186        0.47689297
  785      1       3.73174327        5.14911323       22.97667827
  786      1      13.60442752       23.58998251       17.65587895
  787      1       7.19542448        6.91194574        6.78438475
  788      1       9.78080964       13.70081448        6.33741560
  789      1       4.97813355        1.95729243       23.24319022
  790      1      27.25612024        2.18373909       20.25366581
  791      1      22.07441384       15.35222638       10.08221837
  792      1      21.51206096       13.45508489        8.70529220
  793      1       6.50821333       12.01889263       23.63806653
  794      1      23.96297091       12.18422293        6.06282724
  795      1       6.13944463       26.19462316       19.20648707
  796      1      27.56531301       25.13315963        2.31113494
  797      1      25.01301595       15.16405433       12.29703779
  798      1      25.72041874       13.68265176       21.93658467
  799      1      15.13961472       25.40089598        2.16219384
  800      1       4.51853654       14.25187856        5.42850897
  801      1      10.12030705        6.22891944       24.03285935
  802      1      10.67899616        7.48770718        4.33311748
  803      1      26.45726066        6.50780809       16.41298826
  804      1      20.10689738       20.89101210       23.74699655
  805      1       9.48522347       22.96131033       12.89011662
  806      1      20.97746185       23.58576248        5.96873630
  807      1       1.83042634        9.24194863       26.47823630
  808      1      10.75856062        3.40994697       17.69348903
  809      1      21.07258229        3.64906334       14.29839846
  810      1      21.08891048       20.17629334       27.12807829
  811      1      27.56565718        6.26539627        4.93993592
  812      1       8.52160138       17.02713148       21.51405587
  813      1      15.86999493        5.95608453        8.21011011
  814      1      16.53976226       11.82880435       26.78673115
  815      1       8.33993224       14.69335059       25.28136420
  816      1       7.60873774       24.68949520       22.52213770
  817      1      26.42010071        7.88985293       24.83331186
  818      1      14.54439816       10.95750702        0.05130403
  819      1      11.66714262        3.03351749       12.15486924
  820      1      10.83562654       12.37193949       14.42557424
  821      1       1.64728639       18.21647171       19.54770948
  822      1      13.75303056       21.01746470        7.67025589
  823      1       0.75172877       11.35443149       19.85851774
  824      1       0.75053483        3.61852364        8.98017723
  825      1      10.29806194       14.71188389        0.91260509
  826      1      27.36861817       23.84318587        8.82629680
  827      1       6.17383984        5.22713602       15.93982581
  828      1       0.88033644        0.92457804        2.94685777
  829      1       5.90812141        5.64234678       22.07758769
  830      1       8.82028036        9.61812267       11.74122321
  831      1      26.64591636       10.91053205        3.45536512
  832      1      19.60349620       11.21989415        5.50472764
  833      1       2.20860059        5.39437042        8.51074568
  834      1      15.51872864        0.01641925       15.22378288
  835      1       4.16163985        0.94652721       21.34076601
  836      1      25.87272569       12.26179926        1.69703605
  837      1       8.36623168       24.62429250        5.69395591
  838      1       2.67284842        4.46466789       20.99511543
  839      1       8.03980343       24.60556458       15.89749936
  840      1      22.03593397       26.72665907       19.79290354
  841      1      22.24129563       23.20060008       21.49555254
  842      1      10.30791277       15.35864015       21.62438138
  843      1       5.25297750       18.81047237        0.40895439
  844      1      12.28208045       10.18342776       20.46116558
  845      1      24.94458205       15.69911846       26.62781591
  846      1      13.30219280       24.80982166       24.94707250
  847      1       2.21960353        0.51428282       11.16417732
  848      1      24.33097724       15.54286836       22.75720187
  849      1       5.88786362       23.22916100       12.77925810
  850      1      19.14570095        7.94906633       12.47782978
  851      1      17.50621005       21.45345899        1.84260738
  852      1      15.66325661        2.41205098       15.21211756
  853      1      16.72901835       10.69336368       24.64456080
  854      1      15.30555432       13.18727612        5.58160496
  855      1      11.68574051        2.34731272       19.60701644
  856      1      11.41766375       22.56875989       17.29145319
  857      1       1.90760275        8.47049518       14.13645803
  858      1      23.21936941        0.79630802       22.84677642
  859      1       6.85211436       21.05979317       15.41346259
  860      1       9.02652643        4.32820623        4.98337889
  861      1      10.46206995       24.37832249       15.96117250
  862      1       3.34365481        5.24043182        6.34224122
  863      1      14.28403572        1.49678393       23.21393117
  864      1      20.21391924       10.24752014       20.28466697
  865      1      18.51923192       12.39371274       13.79106637
  866      1      27.25508171       26.36239039       17.88209135
  867      1       6.80528637        8.19059463        0.32163838
  868      1      11.05646093        5.25754328        4.48505007
  869      1      22.76556672        0.35111603       27.21013218
  870      1      23.40607740       16.96310111       17.38755767
  871      1      20.98517532        4.69794348        0.59422521
  872      1       5.24983250        8.60093284       12.10535694
  873      1      25.01942167       10.08011367       21.29587038
  874      1      13.87052281       16.37444820       16.63267469
  875      1       3.39694371       17.02182162       10.18471638
  876      1       4.38710058       15.24268653       16.73760212
  877      1      21.84672746       13.80805732        1.01490517
  878      1       2.98179447        0.86240460       14.80206982
  879      1       3.14245874        6.60252321        2.79469492
  880      1      26.12263840       27.61908886        9.23021110
  881      1       6.77127362       11.31232147       15.97559638
  882      1      15.08678922       18.42964741        4.22774940
  883      1      22.95826681        9.29066690       18.17288126
  884      1      13.80239215        5.82161527        1.93625506
  885      1       5.26401004       26.31025973       10.80603342
  886      1       2.74199550        7.06193957       24.06138966
  887      1       0.37247523       27.63021675        7.83044643
  888      1       1.92906285       24.52793057        9.08772774
  889      1      18.77692281       17.20570133        9.83073246
  890      1      22.45149313       16.64380998        3.14383588
  891      1       1.51607937       15.52455009       26.28497891
  892      1      12.26339782       16.60867404       21.03053858
  893      1      13.64667203       21.87373591       11.77456070
  894      1      25.94778099       25.78505533        0.50943565
  895      1      12.18570080       27.18824841       27.41013363
  896      1       2.84054587       13.81645639        8.64568222
  897      1      19.55295139       26.05483617       14.55059010
  898      1       2.96784999        8.83934021        9.05141360
  899      1      22.83738910        4.42211024       21.44230759
  900      1      25.23759762       26.59595657       13.29274248
  901      1      17.53734353        7.22885840       22.92996506
  902      1      20.80364097       23.90488316       11.81162320
  903      1      17.15928647       25.90148060       14.42325718
  904      1      26.68736839        6.00298542        0.90975199
  905      1      17.73411171       14.37101500       14.78690735
  906      1      14.25539930        8.75859801       27.01795738
  907      1      17.14072246       26.89449226       18.36120998
  908      1      23.95039653       27.61801739       20.77963689
  909      1       0.62857404        2.81607182       16.73210515
  910      1      11.31915760       26.48589182       16.63692607
  911      1       9.61443035       26.09413489        2.09164766
  912      1      26.77186147        7.82028195       10.14413094
  913      1       6.03240551        2.49448547       10.92686229
  914      1      20.39963836        7.80460100       14.65812356
  915      1      22.09603844       26.48051051       23.57396812
  916      1       6.75139665       11.32093668        5.38218668
  917      1      23.66215111       21.69243539        3.15037025
  918      1      22.23412809       20.20160594        1.67091332
  919      1      26.51812323       10.09587097       17.37170721
  920      1       5.36722198        7.35323054       15.48789335
  921      1      11.31652389       12.09966252       23.54594397
  922      1       8.89708718       20.89986804       13.96153796
  923      1      13.57860246        5.23615177       22.61083978
  924      1      17.52786938        8.51580387       24.94245811
  925      1      17.25272951       24.52045714        5.18282445
  926      1      26.11026890       14.99671040        8.66910683
  927      1       5.71719004       18.81569127       12.56208081
  928      1      11.69268159       27.63719132       14.46923080
  929      1      16.45804260       11.99330286        9.07429324
  930      1      13.66634682        1.26535444       26.74303402
  931      1      17.61303459       19.21378087       17.77713822
  932      1      19.64029471        1.15357276        9.32078302
  933      1       3.50515520       13.08724274       17.26860459
  934      1      20.01906060        4.39922416        5.03342657
  935      1       2.22210010       26.89636156        9.04827636
  936      1      20.97850674       15.76179491       20.17579909
  937      1      15.44959841        7.28358294        3.07359100
  938      1      14.90125475       10.60496557        2.32298882
  939      1      22.40333917       11.94318545       12.97121823
  940      1      14.68024722       11.80111845       14.42258037
  941      1       8.13565754       22.20244181        5.57273744
  942      1      15.70405387       17.17318619       15.16810216
  943      1       5.70014247       21.98245664        5.74417182
  944      1      12.63677894        7.78872434       19.96922751
  945      1      12.24278553        2.13679216        2.35225297
  946      1      26.10555866        4.24633368        9.42930798
  947      1      15.46284722        0.51503814       25.32728880
  948      1      12.48872681        8.26282532        9.17701230
  949      1      15.44452517       22.30752377       18.78626310
  950      1      21.39826600        3.24187612       24.94774374
  951      1      25.23623620       20.71426024        8.48695310
  952      1      10.36813792       21.65491450        9.21393759
  953      1       8.69052497        9.49398948       21.82252990
  954      1      18.00921585        7.46637002        7.47141285
  955      1       9.97265645        2.74080965       10.33567639
  956      1      23.68252864        8.01410917       12.76118598
  957      1      21.05109755       15.21134340       25.21515822
  958      1      13.47438195       21.70475459       27.05077108
  959      1      13.59140528       24.44867320        8.58982033
  960      1      15.14573847       15.94320592        9.75516152
  961      1       9.63832651       13.38967343        9.93378928
  962      1      20.99915102       17.08227944        8.99347404
  963      1      26.92988983        2.39377804       12.20197692
  964      1       6.09338055       27.12499744        6.80597296
  965      1       8.61298022       14.68406246       11.72741606
  966      1       8.02441158       20.87853605       26.57335996
  967      1       7.38395952        8.91264100       15.44899523
  968      1      18.35628841       11.27072294        0.75524943
  969      1       4.53082358        7.50225632       20.74859368
  970      1      11.74990193       13.19950095       18.54194908
  971      1      26.29676327       21.23250686       19.48545939
  972      1       0.34370502        8.05550384        6.47525208
  973      1      18.33336032       11.69796249       23.11798302
  974      1       4.62198104       22.95055581       17.63547621
  975      1      11.23120605       10.03556772       14.66215933
  976      1      25.12846542        1.51786958       24.02372867
  977      1      19.75841728       22.41138346       13.42218429
  978      1      25.91202019       12.30581477       14.72606861
  979      1      17.17022507       27.25680257       11.18178085
  980      1       0.97330993        0.71471787        0.56205538
  981      1      14.16939957       11.59594762       20.73993397
  982      1      23.21870675       25.87495420        7.65343082
  983      1      15.18111746        3.46346657       22.26444352
  984      1      24.22261927       13.50062988       25.85285847
  985      1      12.81099970       17.37881473       18.69593681
  986      1      25.82537267        4.83942701        5.74449560
  987      1      14.85718881        5.76426733       17.37066244
  988      1      11.54255461       19.82779438        4.61455761
  989      1       3.57688030        3.27769700        2.88186718
  990      1       8.59510638       17.31469582        5.52899800
  991      1      25.79195092       13.59256602        6.52562151
  992      1       3.96658307       23.67719363       23.12785860
  993      1      17.59054915       16.96344998       16.77933129
  994      1      13.28795579       25.51542367        6.26655452
  995      1      22.34398336       13.30783740        4.78259791
  996      1      24.49120776       18.54967508       13.86933196
  997      1      19.23628397       25.25420998       20.88927887
  998      1      12.24469042        5.31739823       12.54591469
  999      1      14.32187427        2.16623352        1.08406858
 1000      1      18.05540341        9.63055379        4.70361880
