run_id:  1019
total_energy:   -3029.6786447584072
  1000 atoms
  1 atom types
  0.0   27.664  xlo xhi
  0.0   27.664  ylo yhi
  0.0   27.664  zlo zhi

 Atoms

    0      1       0.00347023       18.72738032        6.76748195
    1      1      14.70847583       18.60207078       19.59989790
    2      1      19.85338632       15.23124233       15.87359172
    3      1      17.39881880        8.35144835       17.16687441
    4      1      12.87621851       12.81097356       13.34274932
    5      1       8.81833008       16.67119132        0.72948437
    6      1      13.87545481       23.99275665       26.97872043
    7      1      24.73537563       22.87040959       12.51110449
    8      1       0.66680349       25.97832380        6.10862399
    9      1      26.75510715       27.54269563       27.08089422
   10      1      26.25707068       24.03550460       26.52241176
   11      1      24.73243935       12.81686431       12.65161347
   12      1      12.01966349       16.23428034       11.53220782
   13      1       8.77356627        2.83168481       23.38832848
   14      1      22.31034115       12.21548839       22.83598399
   15      1      16.04245396       21.60714505        8.01268986
   16      1      22.72032847       17.42189994        5.21682852
   17      1       5.63927588        9.40116075       26.31269905
   18      1      25.00942963       10.29114670        5.08014273
   19      1       8.63231472       12.95403063        1.26370729
   20      1      25.63548041       18.08738138        1.77588774
   21      1       3.18091399       23.57697940        7.10734643
   22      1       4.98580315        2.29207918       17.96472595
   23      1      10.40512319       14.37985145       23.84807075
   24      1       0.40297398       14.88829262       19.06520979
   25      1      27.42735614        9.47245420       21.19773248
   26      1      12.89617532       18.22273865        3.59340316
   27      1      22.34196003       19.09672433        9.29105873
   28      1      17.72368061        3.24946899       15.57682359
   29      1      27.26707130       22.36411522        5.59760697
   30      1       4.80648108       21.71311323       14.30818881
   31      1      16.69947019       18.84044172       22.84130725
   32      1      16.94759005        2.94492993        3.36448287
   33      1       9.79383806       16.63583848       12.27231074
   34      1       8.21489283        6.04580205       12.54444339
   35      1      15.72195500       27.20438460        3.60334832
   36      1      10.62884604        6.58302841       20.11510729
   37      1       7.06862871       26.92359077       23.01889719
   38      1      21.88841421        2.74811151       18.08403090
   39      1      10.72917247        0.55022737        1.29352536
   40      1      10.81243116        7.16467992       27.65990551
   41      1      10.77120322       25.38974814        8.54569489
   42      1       4.53270701        0.44860763       11.37099553
   43      1       8.93072060       18.79093568       23.14983010
   44      1       1.36399400       13.16708896       26.42018217
   45      1      23.73462900       10.99353211       19.49685863
   46      1      14.36218820        7.65892803       14.48841896
   47      1       6.62114106        5.00431064       25.70464075
   48      1      14.98990461       20.38648237       25.90780654
   49      1       9.77028592        4.82842668        8.97687467
   50      1       1.39505212       18.50968165        1.06420719
   51      1       7.37697357        2.41536178        1.29103728
   52      1      24.52162299       19.93270448       22.68762881
   53      1       0.16408772       21.44520926       13.44656200
   54      1       6.92301980       21.89270579       11.15423423
   55      1       4.66502264       24.45990872       19.60046918
   56      1       1.87745397       18.81652675        3.34839608
   57      1       5.74714755       11.76719768        9.30076933
   58      1      27.18360944       11.72968223        7.36310932
   59      1      23.34953542        4.42002288        0.21442799
   60      1       2.40816267        3.00466767       15.23244299
   61      1      18.79825339        0.73348930       23.31382512
   62      1       8.11300892       11.71583514        9.29663514
   63      1       5.42483146       27.54747548       17.39420972
   64      1      20.46952093       21.77828000       21.56086902
   65      1       7.08171304        5.13570307        3.62004382
   66      1      15.99092152       13.21536233       15.97365351
   67      1      24.45190379        7.22414834       23.55315417
   68      1       0.19960538       12.28637469       24.61298870
   69      1       7.16338945        2.97402619       18.43750302
   70      1      10.41769446       17.34795130       14.60209891
   71      1      13.74344784        9.70828712       17.37088949
   72      1      13.28925261       21.11659327        1.54089994
   73      1      24.87894123        3.51570315       14.76109507
   74      1      26.36005897        1.81875155       15.76895801
   75      1       2.67791242       10.66943110       10.63096541
   76      1       2.57001562       23.52200391       11.22001837
   77      1       7.74644705       19.93031789       12.19572719
   78      1       3.86731333       16.86743535        7.81231748
   79      1      23.71840929       26.57649493       16.60204778
   80      1       6.99546175        7.51264945        9.04813756
   81      1      18.81793018        4.00870773       21.37304480
   82      1      11.04265158       18.98421307       26.23581926
   83      1      14.72293461       27.41089269        5.82543455
   84      1       0.73448340       21.95817815       18.59015398
   85      1       5.68109979       18.06413082        2.81284835
   86      1      26.84944307       25.13846466       19.92701944
   87      1       9.57294844       15.02800213        8.02407809
   88      1      25.29267212        3.79286922       24.48196161
   89      1      24.22252775        5.79189122       15.85320584
   90      1      11.77374609        4.53159272        2.42719622
   91      1       0.56503035       12.55380539       15.63081411
   92      1      20.01026396        0.46531456       15.61732271
   93      1      16.11228270       10.25388260       20.35789122
   94      1      22.83290200       14.21146283       24.06196508
   95      1      17.75221028       20.82740992       23.70871135
   96      1      10.14207045       19.78025013       19.79358748
   97      1      12.96987162        9.46771604       11.25926336
   98      1      25.52466094       10.06078744       15.26790204
   99      1      27.53911828        6.23231778       26.30356766
  100      1      22.76069252       11.60388797        8.02934975
  101      1      15.04281061       26.04758718       23.98824898
  102      1       8.99891843       14.68441444       16.85579021
  103      1      18.92450273       22.90809330        5.01525396
  104      1      17.88110825       26.51853493        4.09958944
  105      1       2.94346056       25.43882114        5.76319299
  106      1       9.69274874       10.00482614       18.14531271
  107      1      11.20340728        5.35315660       22.12828228
  108      1      23.78255510        1.43361300        2.60826011
  109      1      16.05263331       24.52997777       27.65784620
  110      1      13.87447689       13.62900789       19.49805216
  111      1       1.80183678       15.71238596        7.49373578
  112      1      11.09942123        6.91176845       16.52374240
  113      1      12.86490865        7.77425602        0.98902509
  114      1      23.73685502       24.39643594        9.51145996
  115      1      17.09652615       14.59249505        5.23180731
  116      1      19.85431409        4.88220263       25.94344310
  117      1       8.64961452        2.34310830       14.70649464
  118      1      18.94886240       19.03311868       12.97464385
  119      1       8.88673067        2.10568816       17.04912721
  120      1      12.54955157        5.87924673       14.81694027
  121      1      18.13601035       15.15859259       27.07909022
  122      1      26.95366661       14.25224114        4.60201266
  123      1       5.83873480       19.21630277       16.49849397
  124      1      14.47470405        6.79780892       21.05056635
  125      1       2.64034002       12.33614346       20.88458037
  126      1      19.64049357        6.30712412        3.74393107
  127      1      11.13015767       13.92343363       16.31272322
  128      1      20.90783729       16.66647862        6.55339716
  129      1      14.97466609       22.22430126       20.94632957
  130      1       5.05231381       11.01294917        7.09124327
  131      1      14.89195176       17.26527853        6.20639501
  132      1      25.04053933       25.13363563       15.28731540
  133      1      16.88819150       22.75348237       22.47363225
  134      1       5.14818450       23.99354010        8.68988362
  135      1       6.09159933       21.03023073        0.39038021
  136      1       9.51668345        2.04530376        4.95344773
  137      1       3.03269527       19.47497083       27.33918087
  138      1       6.30058166       15.05490736       11.19166761
  139      1      12.92544851       15.88320982        3.73050120
  140      1       9.61484245       24.49171983       26.10891400
  141      1      26.83942005        0.60893333       13.77278013
  142      1       9.16009737        9.70040204       25.60651669
  143      1       3.88837444        9.01013757        6.87972494
  144      1      16.97911849       23.49553372       11.05355833
  145      1      21.61696803        8.60222681        1.02716417
  146      1       1.78447709       21.81925213        5.93848038
  147      1      11.47346964       26.91770407       10.25562495
  148      1      13.74791561        1.83800841       11.99653418
  149      1       7.38542834        1.18357295        7.89463296
  150      1       0.40171470       12.15405593        0.61061505
  151      1       0.09810413        9.14748705        2.40602897
  152      1      15.44052724       20.64524277        4.74388495
  153      1       7.81719035       25.62576226        3.64561547
  154      1      14.08760966       14.38928110       23.39442805
  155      1      24.78414103       17.62576232       19.27461860
  156      1       2.06290354       24.90719498        1.69090284
  157      1       8.72507226        8.31190790        5.45999398
  158      1       1.28669637       14.16384483       12.24144258
  159      1       2.12438575        6.90504115       26.38097895
  160      1       4.27771041       20.57548122       17.93415817
  161      1       5.52972018       16.34774716       18.47424827
  162      1       5.06162928        0.99534089       13.68879751
  163      1      27.45901401        7.05723800       14.32569372
  164      1      12.83608195       15.10884310        9.57952373
  165      1      19.43154382       23.58762525       26.70894558
  166      1       5.85373810       15.25062683       14.89094890
  167      1      11.06247272       18.62223226       17.93304146
  168      1      14.69538882       18.30147499        9.86047167
  169      1      26.61076198        7.24094428        3.02262134
  170      1      11.50973876       24.50340031        2.74310545
  171      1      20.63586847       15.33667070       12.06148609
  172      1       7.33161817       18.08235948        9.21980685
  173      1       1.75216114       14.47008134       21.29119006
  174      1      16.30660955        9.24331890        6.32842963
  175      1       2.16865533       21.10330686        3.67194668
  176      1      18.08775873       13.56409061        8.55668119
  177      1      25.74084964       23.31734650       22.59873666
  178      1      11.55800252       18.20755154        7.94191932
  179      1      25.54911333       18.05696614        4.05694212
  180      1       8.27884156       25.22379590       19.00562309
  181      1      22.65158852       21.00634220       18.74724553
  182      1      15.38062977       21.77696000        2.74902584
  183      1      21.12833627       26.87943330        2.93883016
  184      1      24.98007934        1.47300326       19.38318770
  185      1      21.91279925        8.33071542        6.16255690
  186      1       0.84094992       23.35290818       26.24501507
  187      1      12.59072257       18.44247886       22.55724115
  188      1      17.45176259       22.59842687       27.40023157
  189      1      14.91199319        5.57109305        6.08283079
  190      1      14.22254841       25.59301393       12.41141845
  191      1      10.81123405        3.09074450       22.00318249
  192      1      25.75094553       25.26658099       24.07261556
  193      1      21.80687960        0.98731991        1.61718998
  194      1      10.26768264        3.55994807       26.73014533
  195      1      18.07234701       24.74666149       17.51492174
  196      1      21.34585080       20.63388500       16.93105881
  197      1      16.48379251       25.42528621       12.35067294
  198      1       3.39907360       26.87034729       16.43473480
  199      1       1.21216091       18.07338918       10.21660026
  200      1       3.99145046       15.95639015       26.21083450
  201      1      16.02418778        5.79914995       19.41010577
  202      1      21.97272366       20.53387755       11.21713552
  203      1       3.74267808       24.87230456        3.43476505
  204      1      18.28942763        5.70363663       12.34259965
  205      1       9.13935263       10.60298211        1.86927875
  206      1      26.80938807        5.50752002       21.29772596
  207      1      26.27923711        7.90870418       18.31037389
  208      1      26.89350756        4.84986561       13.19557155
  209      1      12.93965005        9.00002936       25.11494906
  210      1       4.70169220        9.28413176       22.35437506
  211      1      24.79814108       22.20075582       26.75114437
  212      1       0.16805317       17.84698141        4.69024122
  213      1      23.20136384       16.68793572       20.95813290
  214      1      13.20143658       25.92470592       18.13365537
  215      1      14.16468380       15.29076629       21.18336347
  216      1      26.26347992       15.96098320        0.98914762
  217      1       4.87587265        3.19354984       26.41372693
  218      1       3.81038512       18.67350326        6.38172225
  219      1      20.48854222       10.71613349       23.79370375
  220      1       9.91513876       22.36642517       27.23312059
  221      1      11.38947289       26.02001523       25.47067276
  222      1       1.74933444       12.28971453       13.59822877
  223      1       9.79130468        8.85947262       16.11550588
  224      1      17.30281867        3.80652301       19.58370300
  225      1      16.56301674       11.39614306       12.93543905
  226      1      25.54158475       14.39141238        2.60823859
  227      1       6.15041616        5.98247515        0.12337661
  228      1      13.65597789       12.07633946       22.99551226
  229      1      26.73732848       20.20250533       21.62648965
  230      1       7.62327263        5.58325099       10.26414145
  231      1      22.43251953       19.83400210       13.50465980
  232      1       4.39056413       12.17618486        2.34114588
  233      1       1.14550121       19.03024689       21.64521300
  234      1      21.37427807       16.10588843       14.10409710
  235      1       1.79397136       27.03835019       18.22176083
  236      1      17.06593618       24.93501277       23.60717494
  237      1      20.06039255       24.02336132        1.28921795
  238      1      14.20592563        6.10008388       11.44165847
  239      1      22.26015293       25.20905907       17.92647436
  240      1      14.67241073        9.97504346       23.68631582
  241      1      19.52641346        7.84681168        5.41321365
  242      1       5.42243748       18.69657925       23.74113766
  243      1      24.85437094        2.74649512        0.90371000
  244      1      12.05515142       12.85932103        9.59543672
  245      1       7.00484399       25.01549906        7.56758013
  246      1      19.00526740        5.07468724        7.14021235
  247      1      12.16116663        3.65099813       15.82914006
  248      1      22.53849385        9.81231781       11.62420079
  249      1       1.40972502       18.82753356       16.11904495
  250      1      16.07836742       14.16875756       26.59654376
  251      1       3.01100295        1.15287003        3.75845455
  252      1       5.17254804       13.12803066        0.27152156
  253      1       5.74821961       23.46541843       21.52732781
  254      1      11.83839012        6.85816178       25.47829754
  255      1       0.99767536       15.75105234        5.23485297
  256      1      24.27400912        0.27953094        7.88168207
  257      1      24.65260320        5.16645994        7.77527210
  258      1      15.48675693       27.57624669        9.59115159
  259      1      23.37902173       18.14725240        1.43027735
  260      1      21.18837417       19.96709764       20.31258287
  261      1      25.54701533       16.70145696       24.54812421
  262      1      24.90786220        1.26882921       26.64312706
  263      1      19.95723891       16.88708830       24.08568929
  264      1      12.80706040       18.75726577        1.41304165
  265      1      17.49109378       21.21448499        6.11013991
  266      1       7.57720667       26.56878855       10.71916166
  267      1       9.36784784       24.98324036       21.05394468
  268      1       6.91936744       20.17649601        8.18140939
  269      1       5.44460214       21.72450685        9.44296699
  270      1      16.37074457        3.66569710        9.44580663
  271      1       4.91759793       10.91687278       11.64570443
  272      1      21.80042037       12.00004557       20.42283596
  273      1      16.01071266       21.48381092       11.69570562
  274      1       0.02307837        9.83710959        0.13157127
  275      1      22.26183951        3.79166135        5.49140777
  276      1      17.81328094        7.26726034       19.17402700
  277      1       4.88557884       17.15275053       21.98002432
  278      1       8.98242774       22.89901676       10.59615481
  279      1      20.26730465       24.79928402       16.37728830
  280      1       9.61068722        9.66760662        7.15188366
  281      1      26.77374467        0.84085158       22.32042355
  282      1       2.00796466        4.97639906        4.26510403
  283      1      20.91687020        1.14415638       26.03352815
  284      1       2.61448364        5.82403908       17.63902931
  285      1      22.80155622        7.68808146       14.83146906
  286      1      15.50613417       12.60593367       11.20182973
  287      1       4.38803175       14.69911016       24.26942050
  288      1       1.45284738       10.30031865       24.31659107
  289      1      21.44245019       25.38327905       21.61185382
  290      1      10.38988946       11.23525441       21.56435043
  291      1       4.09120351        4.06660601       16.59986786
  292      1       2.88883520       20.63339068       21.73864831
  293      1      23.45020921       25.71538002       27.19486055
  294      1      20.69972738        1.02798028       19.44491696
  295      1       0.11523091       14.08030969       23.02074957
  296      1      17.88624099       17.57142434       21.25448358
  297      1      14.27772476       15.04449803        0.24208342
  298      1       0.55824663        8.44405671       23.32799531
  299      1       4.78715064       27.08466672        0.57198881
  300      1      19.39892453       25.40131104        8.36346806
  301      1      14.62955054       14.68781316        2.49562658
  302      1       7.23930861       11.06106968       25.64500983
  303      1      17.24303384        4.38199630        1.58154706
  304      1      19.96828555        7.16662016       22.63249995
  305      1      16.83108096       23.89856297       15.60502351
  306      1       4.08732172        9.92673910        2.04116051
  307      1       1.54593023       20.30006717        9.48972157
  308      1       9.49905076        0.86241044        7.03817076
  309      1      24.92398430        1.07959578        5.81159840
  310      1      20.17420062       16.96772325       18.22351926
  311      1       0.96339146        3.00030840       27.62098978
  312      1       3.11693418       10.98486358       22.78879508
  313      1      23.79572864       22.18282022       23.00286664
  314      1       1.38259503        1.64153421       18.74916448
  315      1      14.89358605       27.49533716       17.57545113
  316      1      13.22453854       21.45984639        5.43307524
  317      1      25.63055876       18.95951880       11.96343345
  318      1      24.62385409       18.44239523        9.80151316
  319      1       4.26856679       24.68875695       12.37702170
  320      1       7.79347779       24.29910332       13.65922080
  321      1      12.53621060       17.65148744       24.84897890
  322      1       2.04204624        9.34588432        5.53299176
  323      1      20.30610273       13.00189412       12.27305935
  324      1       9.91375844        0.72419328       19.93749228
  325      1      23.93886954       22.63097834        8.01585225
  326      1       8.35017701       26.41225332       12.83406565
  327      1      23.45713001        5.98460294       11.51738948
  328      1      14.80511221        7.75415056        5.25261163
  329      1      21.66067118       22.35174853        7.59660616
  330      1      23.75550499       16.27756595       13.94511108
  331      1       3.79960623        5.13438828       12.53312063
  332      1      22.58781568       18.77855889       21.82551367
  333      1       0.68291161        3.78282944       21.89725894
  334      1      10.99368176        2.22730208       14.25816312
  335      1      26.22083626       21.18079898       11.82527372
  336      1      19.64385649       20.47061255       11.18894920
  337      1      24.85616074        5.18185022       22.61140358
  338      1      19.88940146        4.36337527       11.02046190
  339      1      19.06462343       19.70474805        7.09996491
  340      1       8.78657896       13.05582179       13.38717651
  341      1      11.43139571       11.07241995        1.93399863
  342      1      18.72440733       19.17715705       27.05668158
  343      1      26.90650186       15.84360042       15.42196375
  344      1       3.54328478       25.85996569       23.96547068
  345      1      10.11422363       21.98912275       19.15656780
  346      1      24.09100098       10.92280731        0.86436914
  347      1      13.47850771        5.13970639       25.08333502
  348      1      25.89228645        8.60835404       13.47369126
  349      1      26.24626570        9.57874209        6.93096617
  350      1      18.21552541        1.12875482        7.27281463
  351      1      26.81432583       22.91945698        3.31728559
  352      1       8.10695772        0.30189103       26.39253316
  353      1      12.94963687        2.32808624        8.25324634
  354      1      19.75261941        8.98424444       25.47802693
  355      1      16.11184442       14.90952923       24.34636645
  356      1      19.73741745       12.44906015       10.02108532
  357      1      18.21150283       13.26937085       19.19594956
  358      1      22.63269981       18.80563556       25.63728150
  359      1      25.86195989       25.26745706        9.96628086
  360      1      15.12089918        4.40888204        0.67203311
  361      1      12.37396505        3.04987161       25.69226495
  362      1      10.11097867       20.41083095        2.71704389
  363      1      26.13041264       24.72675130       12.12619445
  364      1      16.17292892        1.16386272        2.09552767
  365      1      19.00456019        0.78692412       17.81286288
  366      1       6.61828905        6.75194117       24.01892535
  367      1       6.65521803       15.70529844       21.70225569
  368      1       8.39100914       25.88722198       27.55055641
  369      1      15.57845819       20.08995690       18.03153742
  370      1      10.85345168       27.50093398       23.68574449
  371      1      26.95050146        3.73734455        1.47027667
  372      1      23.17499625        5.73816439       17.99010330
  373      1      14.31784594       12.65441184        3.51531326
  374      1      16.80046261       15.47262394        2.99542623
  375      1       6.22365870       14.48937389       19.72649706
  376      1      26.10574978       20.47096299        6.43852232
  377      1       9.03897469        8.35070112       19.78337304
  378      1       3.95529881        7.30310107       13.56580410
  379      1      27.05380506       12.79614439        9.50486424
  380      1      24.74064341       19.94254924       18.42939028
  381      1      12.76988604       22.28244913        9.49322924
  382      1      13.04715454       23.69601109       21.27681557
  383      1      23.92822517       10.48806366        9.80016244
  384      1      18.12417415       11.36820467       20.78799867
  385      1      14.32019824       20.60793363       16.09618973
  386      1       5.71298934       19.97731741        6.23403039
  387      1      27.05856265       19.75475904        0.82074318
  388      1       4.15431324       17.75522811       19.88053978
  389      1       1.07141947       10.91351741       17.33472829
  390      1      11.10087544       22.28521527        1.71887470
  391      1       1.60501045       17.63008885       23.51924001
  392      1       3.78560283       27.23480539        7.12087945
  393      1      26.44085210       21.51884029       15.37421062
  394      1       7.37452294        0.38397598       14.23413670
  395      1       4.55592943       27.19806376        3.02628650
  396      1       5.48456612        3.39087506       13.02589487
  397      1       5.62898330       15.36519501        7.31552219
  398      1       6.31465079        0.04384242       20.89880131
  399      1      27.07777475       17.84865338       16.58833825
  400      1       9.00305805       18.41248962       10.88830839
  401      1       7.89664184        1.23452682       10.19817292
  402      1       1.81050067        4.12244562       13.17743977
  403      1       5.68575534        3.32103008        4.05645042
  404      1       7.41176105        8.22739206       13.02174220
  405      1       1.05782197        7.45334264        8.67393085
  406      1       2.72351371        9.65083630       16.09216794
  407      1      25.29021751        2.21116122       10.44084795
  408      1      19.31925733       26.73244366       10.36013692
  409      1      18.39993573        2.69167766       10.47862130
  410      1       7.56106359        5.36928098       17.86083104
  411      1      18.32793264       17.21063823       25.82386253
  412      1      11.86210718       10.87545115       18.34933396
  413      1       6.16785166       25.18990756        0.22525315
  414      1      14.50966319       21.29214284       23.84351647
  415      1       3.09171764       15.62392681       12.24827397
  416      1      12.19992948       14.24798926       27.11531768
  417      1      21.63159421        1.52319707       10.69029382
  418      1      22.92501578        0.01040251       12.94411962
  419      1      10.69854962       26.41037043       12.66710249
  420      1       6.60191818       10.53206057       21.76297353
  421      1       0.61588162       12.43013972        4.11797024
  422      1       7.73665083        9.77854479        3.80759433
  423      1      19.92214291       23.25031958        8.94998579
  424      1      20.71559174        8.45037717       10.68140143
  425      1      22.39966107       24.13381827        0.98842808
  426      1      17.25980260       20.76036236       26.00650639
  427      1      12.77481297       18.44248208       11.19527138
  428      1       3.37401656       25.03049507       14.78106079
  429      1       5.83331159       13.00179312        4.03587286
  430      1       7.39777435       13.02420439       26.94781949
  431      1      24.48930492       22.81456044       14.83017134
  432      1      22.72228573       22.91667655       11.29885746
  433      1       3.56520576        3.31651791       24.39499923
  434      1       0.61125157       22.78844713       16.43850418
  435      1      21.11697925       25.78412284        6.72849540
  436      1       8.61009455       24.93444332        9.38242489
  437      1      16.02147908       23.78315487        8.82860547
  438      1      12.97452674       25.39141177        1.10305820
  439      1      20.73454164       13.11667217       16.68445701
  440      1       3.83893544        7.90530289       17.13465686
  441      1      17.25792576       25.18376552        7.43089284
  442      1      17.27402548       15.77175916        8.71060618
  443      1      10.10672849        5.09313245        0.84213654
  444      1      15.32719893       14.91563264       11.94606651
  445      1      11.01458536        9.06443846       12.56618773
  446      1       4.25900893       22.30082456        3.69639008
  447      1       4.93689657        7.03303112        6.03050628
  448      1      24.88796273       19.00043420       24.81322128
  449      1       6.48335402       27.36530167        4.37515849
  450      1       9.41223814       27.38513688       17.73630017
  451      1      27.57008326       26.69814576        4.06291237
  452      1      19.61401837        9.32204458        0.08026313
  453      1       1.93855857       22.88259330        0.54922628
  454      1       5.93306743       10.83066970       19.49483187
  455      1       0.53834907       21.63080332        1.99501782
  456      1      17.33016175       11.95542806       17.34919729
  457      1      11.21647962       24.29365323       13.73135826
  458      1       4.63542755       15.25828430        0.70477894
  459      1      22.04363243        3.97753268       12.17582859
  460      1      20.14432777        5.58261259       15.38667777
  461      1      19.79352750       12.86957829        1.86979166
  462      1       4.38670504       11.44431815       15.74451187
  463      1       5.28422975       27.52722399       24.47748036
  464      1      13.22096841       15.09911636       13.16385740
  465      1      23.13346731       22.78224073       25.13520187
  466      1      17.09606170        9.27725824       11.96207983
  467      1      24.59900232       20.18695483        4.66939707
  468      1      21.86104058        2.65399445       22.69227718
  469      1       7.74572061       16.49062918        7.52987008
  470      1       5.34274909        6.86895112        3.71109464
  471      1      25.62924130       11.66816749       25.06443320
  472      1      22.87993853        1.64135501        4.86009657
  473      1      22.50603076       11.98397228       15.41500600
  474      1      27.57984226       21.93838782       22.98772474
  475      1      11.44247203       21.26737466       25.88095365
  476      1      15.72604500        2.27731255       20.25455246
  477      1       7.74098597       11.42939000       18.13626482
  478      1      22.79226573       12.30347984       27.22352603
  479      1      11.85007042        1.33808966        4.50281497
  480      1      12.21135453        4.62134686        8.35520524
  481      1      22.33785574       19.72510920        5.13033353
  482      1      14.58298976       23.00938563       15.52056632
  483      1       6.71780430       14.43939994       23.62685781
  484      1      17.87379705       19.15875905        1.63037532
  485      1      18.67967524       14.96696110        1.72793986
  486      1      24.66058631       24.99598109        6.02865258
  487      1      19.43227683       22.25032320        2.84377628
  488      1      16.12033203        4.84042401       11.65705492
  489      1       9.29767647       17.13544846       16.83199205
  490      1      12.21046581       15.79218368       15.24182306
  491      1      11.94915885       20.33123241       16.45721103
  492      1      27.22543785       15.74191922       13.01231950
  493      1       3.16051585       22.94494131       15.75449789
  494      1      19.09736324       26.12559009        2.11299939
  495      1      17.90335898       22.74650214       18.66075898
  496      1       0.05232029       16.91818240        8.46498215
  497      1      23.49573526       25.12715164       24.94427516
  498      1      20.18078249       27.12712661       24.65334388
  499      1      24.64998654       15.45949234       15.89775525
  500      1      18.81743357       13.34609105        6.30850451
  501      1       6.37434858       22.04225642        2.46470025
  502      1      18.16410488       14.04381643       23.45543116
  503      1       1.60961199       19.39134366       13.65602313
  504      1      22.37894605        0.37602151       15.26314789
  505      1      17.89761082        5.39790981       14.73302307
  506      1      16.04932426       10.05564946       18.00482639
  507      1      22.05176631        6.74263753        9.73675617
  508      1      12.88640993        9.40428507        2.69590715
  509      1      13.80597981       27.58464978       13.57661471
  510      1       3.03751240       15.61698403        4.18045945
  511      1       2.50409008       16.42187659       16.15156323
  512      1       8.66815257        8.09318279       23.82724328
  513      1       7.91356928       16.84884397       26.24489726
  514      1      17.87263401       26.60802292       22.13992959
  515      1      12.70067356        4.78798083        6.08261502
  516      1      13.16059325       23.75266796        4.68351408
  517      1       7.10173169       20.18627569       22.99457070
  518      1       1.37619472       10.16007678       12.53607757
  519      1       9.97910498        5.51484074       18.05560826
  520      1      18.62830203       25.44011454       25.40590528
  521      1      23.19611732        1.98357068        9.05203211
  522      1       3.95821855        5.48874035       10.16511740
  523      1       3.11563638       15.92000517       22.70274462
  524      1       4.11561637       12.22931138       13.51806590
  525      1      16.34358740       17.27704677       24.61223608
  526      1       2.51666918       26.58008479        0.07855390
  527      1      12.88969573       25.99229712       20.58839993
  528      1      20.84016492       18.37891957       14.37563459
  529      1       3.92875538       21.84200765       27.19269134
  530      1       4.65849036        3.31045587        6.16827441
  531      1      14.80576395        8.23035310       12.21327046
  532      1       7.31004462        7.74950419       18.14051797
  533      1       6.49895607        3.33089884        7.56194640
  534      1       4.87722646        8.19249640       24.38706659
  535      1      14.26024227        3.46242537       16.81820078
  536      1       3.24601354        3.69030960        0.50121359
  537      1      23.75062867        6.77874166        3.09083587
  538      1      18.96984521       21.19429882       17.08176046
  539      1      20.49122791       23.08519875       14.60810994
  540      1      23.72291492        3.73621346       19.34707977
  541      1       1.21044359       23.83224473       20.13410399
  542      1      12.91503842       23.00927775       23.58610610
  543      1      13.42813963       23.60465399       13.43011241
  544      1       2.63105749       25.66420044       20.00194779
  545      1       3.03624322        1.55821464        6.11451405
  546      1      24.69374154       11.70379486       22.86129024
  547      1       7.97443473       18.91458403       19.90584794
  548      1      10.92449791       19.26646897        9.95256800
  549      1       4.68510596       22.20021425       24.88306407
  550      1       3.39302531       12.62444733        6.72198788
  551      1      23.87258261        2.38387501       12.65348599
  552      1      17.61177712        6.39101033        2.55091732
  553      1      18.54618972        3.14190743       17.73156862
  554      1      17.56473530        1.83571091       25.20053371
  555      1       6.78073635        3.23443716       22.23463303
  556      1      18.99246038        1.65708510       27.30766399
  557      1      17.76725975        7.96166694        0.82229139
  558      1      23.14766177       23.27040633       19.28249366
  559      1      22.82300809       25.34010079        2.85292896
  560      1       0.12374053        7.40474147       20.12470536
  561      1       7.72612382        4.76456617        1.43425156
  562      1       0.66371354       23.71005285       12.64783532
  563      1      20.26721270       16.70386562        2.12575006
  564      1       7.57058838       11.50560612       12.03851905
  565      1      26.83950552       24.25776651        6.73271132
  566      1      26.71731971       13.07082702       19.75729999
  567      1       0.85421061        2.09825883        7.12566136
  568      1      17.36762481        3.28680813        7.19959972
  569      1      27.30754360       24.95107427       16.03914076
  570      1      20.90934933       22.04081637       25.60959848
  571      1      13.38820309       15.22614214        5.96066512
  572      1      17.09738505       20.47942548       13.59069166
  573      1      25.51746690        0.29036454       17.42399419
  574      1       2.61319005       26.98655837       22.10048904
  575      1       8.90665367       18.81199899       25.51493243
  576      1       6.26497535       24.43742548        2.39281954
  577      1      13.12114998        7.46785316       17.73634211
  578      1      14.60371070       19.64127043       21.85678737
  579      1      15.70825949        8.53346711       21.97750311
  580      1      27.14565761       21.55993264        9.69559056
  581      1      21.25110686       18.75811768       23.74494251
  582      1      23.28449921       23.80357318        4.53086267
  583      1       6.67756663       21.06652607       20.77803407
  584      1      24.43250224       15.94555707       10.11576785
  585      1      20.64485778        6.87473428       24.87614684
  586      1      14.64349318        2.02430464        9.77141233
  587      1      25.87727363        5.78194065       11.15963142
  588      1      13.56119271        9.79402549       15.14981483
  589      1      17.20781141        4.76143176       22.98198002
  590      1      21.39951774       20.14752334        7.25531620
  591      1      18.68841694       16.82643803       12.06815964
  592      1       4.91056838       14.39448394       12.97560424
  593      1      11.00441137       14.77894089        3.08119475
  594      1      20.89899037       20.31979507        3.23595409
  595      1      17.83823911       27.66170501        0.74567982
  596      1      25.38590986       26.81744638        4.66053277
  597      1       0.21269331        4.94850390       17.50144639
  598      1       7.37061987        4.29667779       14.06632465
  599      1       8.90404259        4.43146321       25.07229125
  600      1       7.50345775       14.23900247        3.00321073
  601      1      11.73957629       15.92466480        7.75367619
  602      1      12.04569085        1.88950258       23.65275165
  603      1      17.56608866        4.22012859       25.21903106
  604      1      13.72065305        6.29042149        9.20613628
  605      1       3.56270936       12.23920115       26.51227472
  606      1      17.59643405        1.64934056       12.38959120
  607      1      27.20401407       17.10975433       18.88288121
  608      1      27.63345542       26.67327173       25.06386249
  609      1      16.24601958        6.83298298       15.76901121
  610      1      25.85349423       26.43221549       21.71146723
  611      1       4.49463083       12.70770713       19.41794030
  612      1      19.50190292        9.16627398       16.41735226
  613      1      25.40216953       23.30352864       20.13530076
  614      1      11.53405888       26.59234302        4.72078305
  615      1      18.00535162       10.44720971        9.97317252
  616      1       2.07978108       19.46103534       25.13001842
  617      1      13.69378513       26.15142453       10.20464214
  618      1       9.10558161       20.89471141        7.39827075
  619      1       1.94191869       19.90968728        7.17906146
  620      1      10.74093183       19.86903258       22.19239810
  621      1       6.89333214       22.80768606       16.96637257
  622      1      11.95275764        9.58079051        7.22320599
  623      1       5.79488782        0.92330777       26.66617752
  624      1      16.86143884       15.92403942       13.35823428
  625      1      15.20209793       11.42180629        7.15863010
  626      1      22.65034948        3.90131830        7.81538691
  627      1       5.84145749        4.21895716        9.59536834
  628      1      15.99258301       16.65862899       20.23359559
  629      1      10.66337277       22.03449445       23.40163661
  630      1      16.14675060       17.69848997        2.23063470
  631      1      20.62246073       13.57411395       19.10401610
  632      1      24.37769670        6.39843418        0.76032339
  633      1       0.90619172       14.65430896       16.68214707
  634      1       1.28172619        2.84456120       24.02537615
  635      1      18.27556790       22.10710406       14.99484866
  636      1      16.91423598       26.46075183       26.66921825
  637      1       5.67409727       17.67466128       26.00260449
  638      1       9.06910798        8.84619730        0.13055232
  639      1      23.60465507       22.09614069        1.16683614
  640      1      27.50536725        3.93265803       25.58301301
  641      1      11.02742013        1.22181634        8.90482169
  642      1       9.11432717       15.16755257        4.45526047
  643      1       4.63085495       20.10644422       20.15629459
  644      1       1.39893465        2.63875368       11.14330928
  645      1      14.50810881       27.12782786       21.88464701
  646      1      19.31997575       13.75309687       25.54728781
  647      1      21.32865991       15.76790509       27.46579706
  648      1      12.31988438       15.23792989       24.86709952
  649      1      21.53840490       18.26152076       16.74943244
  650      1      20.11269908        6.54293589       19.08822001
  651      1      26.91742510        9.64893618       11.70128218
  652      1       5.23900096       14.04145528        9.27234612
  653      1      25.30887029       12.02483779       18.19753286
  654      1       8.08641537       21.01298027        3.73476676
  655      1       2.03043503       12.80478649        2.27727262
  656      1      11.84615662       13.07857436        5.95029867
  657      1       6.64226765       16.10462666        1.84183604
  658      1      26.20919231       20.37109432       26.28560226
  659      1       7.88786478       22.66094319       19.07384620
  660      1      16.24921289        7.57277296       26.69415686
  661      1      19.38489973       18.52605290        3.32194563
  662      1       0.94093338       16.24182943        0.74236940
  663      1       1.17097739       25.33018198       14.22205215
  664      1      17.11930341        9.81563249        2.43054107
  665      1      15.00107158       14.54036503       17.59472498
  666      1      11.96987394       12.65724415        3.59715887
  667      1      13.08278042       19.80987978       13.01192575
  668      1      21.15555593        9.08647656       22.10717708
  669      1      20.74199922        4.97629414        8.85529896
  670      1      24.08371041        7.54546248       19.20966188
  671      1       8.48812015       11.74174589        6.84145869
  672      1       7.56780699       13.61187422       15.28274946
  673      1      16.38957279       27.30890835        7.48277179
  674      1       1.56371129       12.82246422       10.24228126
  675      1      25.69214348       11.53935389       10.92871465
  676      1       8.23335862        4.81967444        7.05523287
  677      1      20.41871639        4.74252231       17.60123781
  678      1      10.41345601       18.61252529        0.94509784
  679      1       1.94864370       22.76573650       22.07948092
  680      1       3.38480527        2.45242005       19.75427650
  681      1      12.63458640        8.68912791        5.06526803
  682      1      19.93608008        1.97226379       21.61893281
  683      1      15.30497682       23.85618960        3.78229613
  684      1      23.30696391        9.73670725       15.91481464
  685      1       2.30480353        8.82954903        3.19734669
  686      1      22.44529327       10.16723957        2.58682272
  687      1       4.23456283       12.31116321       24.29960048
  688      1      20.73640444       26.30172552       12.37297573
  689      1       5.28303016        8.59014363       18.86342769
  690      1      16.92725713       15.39691081       18.52090803
  691      1      20.94912835       10.23799397        7.22553979
  692      1      15.61734641        5.30712418       26.22196134
  693      1      18.96486634       17.79615618        5.72719382
  694      1       1.89766416       25.51420878       25.68491899
  695      1      21.35725799        6.53353064        2.17029761
  696      1      23.53837273        8.16669656       27.13424887
  697      1      19.02593943        0.68531325        5.14804818
  698      1      20.96990407       11.78452817        3.65923044
  699      1      23.50462997        8.31227325       21.64336535
  700      1      21.16073029       27.60399003        5.15423019
  701      1      25.05233984        8.73773669        8.74138639
  702      1      10.73355974       23.10958550       21.05769309
  703      1      10.50801631        6.72630479       12.07734147
  704      1      22.31243425       21.65404176       15.02558341
  705      1      19.28375935       15.84667881       22.05932470
  706      1       0.23736712        3.11747642        3.58762179
  707      1      10.78866260       26.76247122       21.40066924
  708      1      15.13187791       19.34464739       14.34897018
  709      1      16.43311368       27.61525983       20.60736543
  710      1      23.32589553        4.46528025       25.61778572
  711      1      14.50706983       17.41075218        0.42963594
  712      1       8.70828742        0.56361175       24.11718713
  713      1       5.45598402       17.69289271       14.60570602
  714      1       2.44446591        6.48451892       19.91108089
  715      1      16.31468196       20.09281267        9.82432735
  716      1      10.18597321       19.05187452        6.30009266
  717      1       1.35346581       27.49157340       13.38995505
  718      1      11.32336445       10.71525126       25.47161947
  719      1      25.41900913       19.41733660       16.07154636
  720      1       2.00168079       20.00594784       18.04669401
  721      1      19.14389020        2.62167214        3.81170140
  722      1       3.72938812       10.10258911       27.35722950
  723      1      24.03736389        4.81253654        4.30784707
  724      1      12.27563658       11.84454316       27.41134346
  725      1      10.09176328       13.37566824       20.26244691
  726      1      23.32985169        8.83933742        4.30116337
  727      1      13.70982398        1.94683133        5.97243017
  728      1      23.42411085        7.28654347        7.92432097
  729      1       0.13363227       16.05161738       24.37142555
  730      1      26.72980777        2.68838165        5.63590009
  731      1       0.42031681       21.21626470       25.14589591
  732      1      26.30175911        4.40156024       19.30153925
  733      1       7.24816941       17.92064882       17.86541556
  734      1       1.47581643       11.55899798        6.01149527
  735      1      19.23041578        2.14656891       14.21815376
  736      1       7.72348504        1.85267543       20.40120830
  737      1      20.92380789       14.32817553        6.46045282
  738      1      12.80475171       11.69439507        7.58396198
  739      1      13.80350723       18.72393377        7.78838589
  740      1      23.17529517       14.49780368        2.86441883
  741      1      19.15410057       11.48076475       15.97239016
  742      1       8.24428476       13.61005136       18.82542021
  743      1      22.94050331        6.79178216       25.25780063
  744      1       7.06726905       21.81041942       24.68540049
  745      1       3.35648964       21.32698874       10.67591286
  746      1       0.97365432        0.50227299       23.50866901
  747      1       6.05704201        8.74590616        2.51211458
  748      1       5.71060861       17.33272931       10.77936352
  749      1      10.01599681       26.26495517        6.47072374
  750      1      18.48367405       19.41267122        9.39689852
  751      1       9.22429965        1.74547632        0.06705190
  752      1      22.67853760        2.63296752       15.75912443
  753      1       3.78371718       20.29127111       23.86435929
  754      1      15.73583979        3.37866426        5.43872698
  755      1       7.06393861       19.04642528        4.50918006
  756      1      23.13335725       17.04983453       27.11600751
  757      1       3.79047381       20.21935792       12.74224669
  758      1      25.62731328        9.63076212       26.46428183
  759      1       8.79869241        8.93821596        9.40165925
  760      1       0.10281940       17.96975696       12.28137450
  761      1       3.15633418       17.17957572       13.98552930
  762      1      11.05750441       19.65028002       14.39877179
  763      1       7.44429320        1.67704846        3.64133765
  764      1       2.60469555       15.05097480        1.97561234
  765      1       3.74143609       17.78790395        4.15776850
  766      1      19.17353431       18.70700075       19.58750234
  767      1      14.59852842       18.12868252       25.87020601
  768      1      18.61469980       23.03002613       20.87308719
  769      1      17.07646340       16.50832872        6.51521147
  770      1      20.71928655        8.83101328       18.43999355
  771      1      24.41203650       13.14112182       16.26820660
  772      1       8.69955952       23.39959741       24.15759036
  773      1      14.02696810        1.92878572       18.63312632
  774      1      20.13467897        2.69100902        1.56048775
  775      1      10.46059335        7.18808635        9.74553813
  776      1      20.61815550        5.54747840       21.14472923
  777      1      15.60914588        2.88536089       12.90994801
  778      1      13.26562526       11.82302279       11.26764023
  779      1      19.43725317        9.08113475        8.74815087
  780      1       7.41812371       26.90613313       16.23615331
  781      1       4.79798317        7.65943930       10.01624039
  782      1      24.54706952       26.82245559        2.52426439
  783      1       3.63996827        5.99616184        0.48717541
  784      1       3.72561529        5.13583868       22.98595769
  785      1      13.67384163       23.58672957       17.65206640
  786      1       7.19401561        6.91586948        6.79490062
  787      1       9.64126214       13.66754396        6.22252018
  788      1       4.96845759        1.94374480       23.25723742
  789      1      27.26017281        2.15121954       20.27861062
  790      1      22.08251540       15.37318248       10.03199818
  791      1      21.50183524       13.48492501        8.65938448
  792      1       6.50849689       12.01770019       23.63392531
  793      1      23.95628981       12.20048617        6.04859912
  794      1       6.13718145       26.18144631       19.21679639
  795      1      27.46599040       25.05398274        2.42659738
  796      1      25.01847540       15.16443865       12.29166612
  797      1      25.73672429       13.65590268       21.93535928
  798      1      15.13080070       25.42312516        2.14894612
  799      1       4.51922885       14.26467746        5.43673494
  800      1      10.11586432        6.23290433       24.04193779
  801      1      10.68601980        7.52969317        4.37490496
  802      1      26.46693543        6.48473710       16.41105407
  803      1      20.09437661       20.86548679       23.68036513
  804      1       9.54149363       22.92628108       12.94740577
  805      1      21.17344191       23.62182253        5.73252217
  806      1       1.83317626        9.23729324       26.48598266
  807      1      10.74170276        3.39757895       17.69323363
  808      1      21.08992252        3.69589034       14.31293404
  809      1      21.01450225       20.08970040       26.94428334
  810      1      27.56888828        6.26585208        4.95008876
  811      1       8.53304297       17.03400463       21.51841336
  812      1      15.87327530        5.97142608        8.21491883
  813      1      16.52715958       11.83745603       26.79385828
  814      1       8.33674733       14.70511329       25.27954547
  815      1       7.61360149       24.68507485       22.52843210
  816      1      26.42501799        7.87762968       24.84156146
  817      1      14.52986428       10.98357172        0.07000872
  818      1      11.65805438        3.02955673       12.15849996
  819      1      10.86546874       12.37440685       14.46076355
  820      1       1.67134309       18.20531152       19.57090800
  821      1      13.81251620       21.06761354        7.67501862
  822      1       0.76641242       11.32307592       19.85628883
  823      1       0.75894435        3.58942004        9.00564692
  824      1      10.26145313       14.72974471        0.87705923
  825      1      27.36302153       23.83707078        8.95068882
  826      1       6.15917144        5.17971553       15.91128009
  827      1       0.87491203        0.89965212        2.97439659
  828      1       5.90040095        5.63172995       22.08454639
  829      1       8.81905627        9.59444099       11.75481091
  830      1      26.64373376       10.91286393        3.45756191
  831      1      19.59013127       11.24887935        5.49736243
  832      1       2.20768633        5.37345526        8.51976214
  833      1      15.48151293        0.04998365       15.26368237
  834      1       4.14822060        0.92660682       21.35909879
  835      1      25.87084303       12.26225108        1.69705870
  836      1       8.41548710       24.63016255        5.68814267
  837      1       2.66941878        4.44049961       21.00431603
  838      1       8.06267394       24.58405503       15.92313433
  839      1      22.03736862       26.71983169       19.77236576
  840      1      22.26386176       23.20173920       21.46103492
  841      1      10.32547272       15.37220892       21.61348935
  842      1       5.25177147       18.85304777        0.43901337
  843      1      12.28318498       10.18054294       20.47282803
  844      1      24.97070264       15.66616966       26.60625615
  845      1      13.29808003       24.82011567       24.92880281
  846      1       2.23131761        0.42887978       11.17477782
  847      1      24.34134221       15.50933171       22.75062463
  848      1       5.91147415       23.16945939       12.86317788
  849      1      19.14915132        7.95002820       12.47308850
  850      1      17.48959477       21.46392792        1.79664229
  851      1      15.65756381        2.43676470       15.22527394
  852      1      16.72202315       10.69406744       24.65562881
  853      1      15.14174063       13.34696257        5.65488210
  854      1      11.67162862        2.34908488       19.61370543
  855      1      11.47560628       22.55864165       17.29541159
  856      1       1.91649091        8.44723343       14.12658057
  857      1      23.21837285        0.78632467       22.85843006
  858      1       6.89023518       21.02713532       15.44827610
  859      1       9.02792271        4.35293247        4.98075042
  860      1      10.48927807       24.36796460       15.98883259
  861      1       3.34459734        5.22906352        6.35121694
  862      1      14.27354081        1.50593521       23.21552360
  863      1      20.22443266       10.23288043       20.29578533
  864      1      18.54921824       12.37868317       13.78389787
  865      1      27.23834172       26.33562439       17.89788018
  866      1       6.79831298        8.19090267        0.32345391
  867      1      11.05726219        5.29307485        4.49536850
  868      1      22.76000649        0.30932409       27.21892488
  869      1      23.63049555       17.08720870       17.26565473
  870      1      20.98409087        4.70131575        0.60738434
  871      1       5.25229468        8.58188076       12.10729588
  872      1      25.03117238       10.05635786       21.29802346
  873      1      13.94028506       16.40658716       16.67903229
  874      1       3.40104398       17.03177783       10.21799970
  875      1       4.41947093       15.22619501       16.73831294
  876      1      21.83823995       13.80243393        0.99131255
  877      1       2.99271056        0.80394384       14.78098740
  878      1       3.13866749        6.59847455        2.80362542
  879      1      26.11800397       27.59987418        9.29685639
  880      1       6.78653426       11.30030281       15.96719074
  881      1      15.07704625       18.47376200        4.20806785
  882      1      22.96767177        9.27372535       18.17447056
  883      1      13.79342509        5.85342552        1.95319939
  884      1       5.27014782       25.94588112       10.59235311
  885      1       2.74129241        7.05178909       24.07098514
  886      1       0.38026421       27.60361449        7.88467360
  887      1       1.94780475       24.47388550        9.16709219
  888      1      18.81173474       17.17264840        9.75528708
  889      1      22.44968872       16.67658509        3.02287378
  890      1       1.51971841       15.52292025       26.28795127
  891      1      12.29211854       16.62499237       21.01649473
  892      1      13.65143373       21.84429887       11.83836482
  893      1      25.89906822       25.76511519        0.59764220
  894      1      12.18042901       27.20287542       27.40667795
  895      1       2.85850701       13.82702359        8.64788631
  896      1      19.47401136       26.25001326       14.52593850
  897      1       2.97292886        8.82247784        9.05729065
  898      1      22.84262413        4.41644507       21.45384686
  899      1      25.17929087       26.55116737       13.36425141
  900      1      17.53435189        7.23368586       22.94612396
  901      1      19.24211016       22.80758390       11.11221025
  902      1      17.11368433       25.95341120       14.49527404
  903      1      26.68618433        5.99488783        0.92170803
  904      1      17.78337888       14.35565725       14.78718054
  905      1      14.24427925        8.78143640       27.03833207
  906      1      17.13915610       26.92361332       18.37034237
  907      1      23.95143635       27.60589554       20.78886181
  908      1       0.63795949        2.78078022       16.73154511
  909      1      11.32319895       26.48329011       16.65262526
  910      1       9.61910994       26.10168874        2.08951946
  911      1      26.77144816        7.81349476       10.14359951
  912      1       5.99701841        2.38902157       10.87361239
  913      1      20.40615765        7.81903684       14.65566956
  914      1      22.09291968       26.46948722       23.57728878
  915      1       6.71083820       11.31080215        5.37066942
  916      1      24.58967010       22.17557738        3.32673831
  917      1      22.21420002       20.20870019        1.29959680
  918      1      26.52763825       10.07008577       17.36944966
  919      1       5.36601617        7.31608738       15.47742076
  920      1      11.31178265       12.10571132       23.54694231
  921      1       8.95435894       20.85026937       13.99772339
  922      1      13.57211989        5.24205792       22.62262154
  923      1      17.52126389        8.51959871       24.95957964
  924      1      17.27525633       24.52853238        5.15241900
  925      1      26.11899641       14.98578072        8.67275162
  926      1       5.74020470       18.79767312       12.57824464
  927      1      11.66177778       27.63470115       14.47851998
  928      1      16.43759271       12.02670284        9.09177831
  929      1      13.66201914        1.28121348       26.74426694
  930      1      17.76523482       19.28426137       17.69800364
  931      1      19.62947473        1.11206749        9.32388905
  932      1       3.52398568       13.07624885       17.26391147
  933      1      20.01499956        4.41787988        5.04353968
  934      1       2.23893442       26.83993310        9.07462835
  935      1      20.99891547       15.72051085       20.18344118
  936      1      15.43329870        7.31080653        3.10711297
  937      1      14.87897418       10.66619962        2.35403183
  938      1      22.41103215       11.94614401       12.96048533
  939      1      14.73099610       11.76911616       14.47267482
  940      1       8.96232301       22.32504981        5.51899985
  941      1      15.79742182       17.20279493       15.20170797
  942      1       5.07036237       22.23987516        5.87356163
  943      1      12.62906166        7.78472296       19.98112303
  944      1      12.23705869        2.17172392        2.34232448
  945      1      26.11005129        4.22519141        9.45437623
  946      1      15.45502125        0.52932290       25.32383257
  947      1      12.48482043        8.30558255        9.19554058
  948      1      15.56606240       22.30890104       18.76121085
  949      1      21.39922758        3.23585996       24.96088177
  950      1      25.26892047       20.70019215        8.56193133
  951      1      10.46349651       21.54126557        9.32623064
  952      1       8.68906512        9.48852299       21.82289317
  953      1      18.00453972        7.48583548        7.46758135
  954      1       9.96066454        2.72789930       10.34150562
  955      1      23.68699988        8.01727393       12.75764132
  956      1      21.03916264       15.18973553       25.18873793
  957      1      13.46736250       21.71983664       27.02268715
  958      1      13.66233623       24.42251984        8.64206866
  959      1      15.17764712       15.97952106        9.84914850
  960      1       9.61904474       13.52070354        9.82802617
  961      1      21.04553100       17.10998064        8.90528641
  962      1      26.95219163        2.34244525       12.21252517
  963      1       6.15156074       27.13092000        6.81567308
  964      1       8.64777112       14.67765314       11.68652812
  965      1       8.01909022       20.89583512       26.60116828
  966      1       7.38840354        8.89024990       15.45947908
  967      1      18.34183844       11.28674538        0.76515495
  968      1       4.52906416        7.48533534       20.74883689
  969      1      11.76640383       13.19196527       18.55975717
  970      1      26.35908021       21.25063543       19.55607123
  971      1       0.34413526        8.05530787        6.48257748
  972      1      18.33360837       11.68265930       23.12553625
  973      1       4.62344178       22.93042430       17.65573879
  974      1      11.24101250       10.03117907       14.68034611
  975      1      25.11888900        1.50256524       24.05594188
  976      1      20.86687293       23.91355312       12.42093958
  977      1      25.91742144       12.28572053       14.72454726
  978      1      17.18560527       27.24575433       11.18792666
  979      1       0.94703470        0.69091863        0.58899193
  980      1      14.17553342       11.59571786       20.74592190
  981      1      23.22627610       25.89813229        7.69910976
  982      1      15.17702844        3.47418368       22.27809056
  983      1      24.22567845       13.47709907       25.84412240
  984      1      12.86461298       17.41201064       18.71020025
  985      1      25.83488110        4.84312477        5.76855048
  986      1      14.85664336        5.76916521       17.38497784
  987      1      11.54441151       19.88798028        4.58336599
  988      1       3.56809734        3.26912275        2.89667615
  989      1       8.57145748       17.44093326        5.49606217
  990      1      25.79267730       13.59329615        6.52585774
  991      1       3.97044998       23.67344575       23.15564341
  992      1      17.70454733       16.94434080       16.81059623
  993      1      13.24760162       25.51729222        6.33180386
  994      1      22.34120683       13.33109974        4.75614018
  995      1      24.36142664       18.59652509       13.93068874
  996      1      19.24987462       25.27162591       20.89129986
  997      1      12.24769819        5.31013913       12.54875386
  998      1      14.31413991        2.19234751        1.08346510
  999      1      18.03179549        9.66285510        4.72101234
