run_id:  1016
total_energy:   -3029.557388895847
  1000 atoms
  1 atom types
  0.0   27.664  xlo xhi
  0.0   27.664  ylo yhi
  0.0   27.664  zlo zhi

 Atoms

    0      1       0.03486892       18.75110349        6.76110194
    1      1      14.73287020       18.59037797       19.60351118
    2      1      19.85678737       15.23167715       15.86685230
    3      1      17.39115861        8.33969802       17.16675277
    4      1      12.88322659       12.80056330       13.33916351
    5      1       8.84073146       16.66326868        0.71316602
    6      1      13.88052048       23.99505179       26.99190835
    7      1      24.73045591       22.88419056       12.50807440
    8      1       0.64345764       26.01249547        6.12470559
    9      1      26.75603440       27.54597106       27.08717356
   10      1      26.26622771       24.04011182       26.52513559
   11      1      24.73235176       12.83563576       12.64967303
   12      1      12.03650804       16.22024033       11.51692606
   13      1       8.77054510        2.83442995       23.39956780
   14      1      22.31168120       12.22279667       22.83607162
   15      1      16.03204479       21.60724926        8.01105246
   16      1      22.73496377       17.42894586        5.21566315
   17      1       5.64120853        9.40284959       26.30962193
   18      1      25.00870649       10.29712754        5.07635249
   19      1       8.64496852       12.93506013        1.24258867
   20      1      25.65330230       18.09826222        1.77199141
   21      1       2.96756898       23.64012951        7.20464361
   22      1       4.94728192        2.36761516       18.00742527
   23      1      10.41600153       14.37941884       23.84567446
   24      1       0.42152344       14.92514561       19.06742044
   25      1      27.42464917        9.49977000       21.19570703
   26      1      12.91784509       18.21197611        3.58433187
   27      1      22.34949423       19.10289179        9.29051987
   28      1      17.68922920        3.23312560       15.57929229
   29      1      27.29972015       22.37774340        5.60369045
   30      1       4.88574698       21.76331432       14.28506597
   31      1      16.72039279       18.83664677       22.84064674
   32      1      16.94341561        2.94174698        3.37132744
   33      1       9.81638920       16.61663939       12.26384560
   34      1       8.21081233        6.06306276       12.56285948
   35      1      15.73721398       27.20333011        3.60339739
   36      1      10.62370061        6.57798973       20.12198532
   37      1       7.05777261       26.94093830       23.05349078
   38      1      21.87053164        2.76268427       18.08639020
   39      1      10.72495430        0.54031588        1.30702525
   40      1      10.81088349        7.15266555        0.00132499
   41      1      10.60705161       25.32764435        8.68336974
   42      1       4.45774312        0.65788775       11.50578243
   43      1       8.94156400       18.79768490       23.14296765
   44      1       1.36633106       13.17652410       26.40913874
   45      1      23.73065697       11.00770407       19.49707708
   46      1      14.34554835        7.64011725       14.49591782
   47      1       6.62024972        5.01061818       25.71066592
   48      1      15.00809029       20.38172055       25.91730947
   49      1       9.75676669        4.81404969        8.99786063
   50      1       1.40819349       18.51889780        1.05238909
   51      1       7.37157832        2.41016595        1.31307195
   52      1      24.55134755       19.93926737       22.67118965
   53      1       0.17483416       21.47740928       13.43182112
   54      1       6.87366860       21.87331136       11.00891266
   55      1       4.66888568       24.49976063       19.57352401
   56      1       1.89884279       18.83006399        3.33983121
   57      1       5.74904927       11.75100066        9.29808389
   58      1      27.18232440       11.73718526        7.36146811
   59      1      23.34345898        4.42450155        0.21750362
   60      1       2.36302055        3.06675877       15.26160260
   61      1      18.79315059        0.73096723       23.31261066
   62      1       8.11537371       11.69484514        9.28476122
   63      1       5.34280920       27.64112945       17.45530907
   64      1      20.48752248       21.77992459       21.55744323
   65      1       7.07911429        5.12958434        3.63738249
   66      1      15.99872248       13.20629155       15.96940478
   67      1      24.44365485        7.23515731       23.55831044
   68      1       0.20359249       12.29849513       24.60261104
   69      1       7.14211605        2.99028083       18.46558527
   70      1      10.44315493       17.34154773       14.59145218
   71      1      13.74136890        9.69843241       17.37312351
   72      1      13.31608664       21.11911861        1.54454039
   73      1      24.83156444        3.53565081       14.78015301
   74      1      26.32567565        1.85215987       15.78755708
   75      1       2.67579475       10.68528008       10.63958845
   76      1       2.55598668       23.55109345       11.16945064
   77      1       7.75021023       19.92256474       12.06565987
   78      1       3.86490967       16.84091867        7.77994189
   79      1      23.70137639       26.58854871       16.60405312
   80      1       6.98750494        7.52043439        9.05312257
   81      1      18.80523552        4.00498419       21.37148510
   82      1      11.05186099       18.98316201       26.23467240
   83      1      14.74040137       27.41687724        5.81768113
   84      1       0.77783523       22.00498602       18.56607489
   85      1       5.67122560       17.98669400        2.73693167
   86      1      26.84617801       25.15901878       19.92469002
   87      1       9.60348318       14.96809331        7.99764806
   88      1      25.28291503        3.80110671       24.48719136
   89      1      24.20057533        5.81440819       15.86733470
   90      1      11.76982617        4.50793316        2.44431129
   91      1       0.55153307       12.57535079       15.62962530
   92      1      19.98314866        0.45746468       15.61998343
   93      1      16.11419834       10.24758794       20.35855268
   94      1      22.84349631       14.22232912       24.05814584
   95      1      17.77114846       20.82465668       23.70835331
   96      1      10.19466212       19.77198940       19.82319386
   97      1      12.96968913        9.45201643       11.26338431
   98      1      25.50801096       10.08266736       15.26749787
   99      1      27.53353678        6.24080377       26.30626737
  100      1      22.76023885       11.60878627        8.02612561
  101      1      15.04559534       26.04453204       23.99211404
  102      1       9.02110225       14.69357700       16.85277416
  103      1      18.93209806       22.90591114        5.01602271
  104      1      17.89046006       26.51550823        4.10255511
  105      1       2.91004935       25.45716086        5.79471219
  106      1       9.69330037       10.01118555       18.14735025
  107      1      11.19942025        5.34219617       22.12973799
  108      1      23.77747654        1.43849435        2.60739073
  109      1      16.05919928       24.52935423       27.66105739
  110      1      13.88741425       13.62334550       19.49739500
  111      1       1.79324667       15.70184451        7.47855993
  112      1      11.08430715        6.89766960       16.53430881
  113      1      12.86530561        7.75826524        0.99158883
  114      1      23.71991424       24.40579757        9.51098279
  115      1      17.11097723       14.58655262        5.22850568
  116      1      19.84785276        4.88329663       25.94572866
  117      1       8.60629100        2.32774961       14.74836168
  118      1      18.95960594       19.02655442       12.97129308
  119      1       8.83337545        2.04902206       17.08112430
  120      1      12.53423119        5.84641616       14.83879465
  121      1      18.15080802       15.15714550       27.07708627
  122      1      26.95412011       14.25764500        4.59476750
  123      1       6.01320476       19.36509671       16.44088203
  124      1      14.46998561        6.79252975       21.05404688
  125      1       2.64661935       12.35726717       20.86776825
  126      1      19.63506993        6.30674926        3.74873234
  127      1      11.14713151       13.92013967       16.30936039
  128      1      20.92033555       16.67160529        6.55058919
  129      1      14.98920797       22.21735030       20.95796464
  130      1       5.05125245       11.00376389        7.08667570
  131      1      14.90433972       17.25081996        6.19755778
  132      1      25.02769407       25.15162329       15.28697040
  133      1      16.90520709       22.75001849       22.47428960
  134      1       5.21312308       23.18692101        7.65446502
  135      1       6.08024663       21.00112672        0.32960330
  136      1       9.50030567        2.00762441        4.99462665
  137      1       3.03339466       19.46629686       27.30345789
  138      1       6.30520673       15.01394288       11.19400640
  139      1      12.94296200       15.86992980        3.72085561
  140      1       9.61488792       24.49303246       26.12050898
  141      1      26.79410295        0.65028535       13.78556379
  142      1       9.16297125        9.69674370       25.60487656
  143      1       3.88130741        9.00879518        6.88125860
  144      1      16.95442760       23.49091247       11.04720293
  145      1      21.61543135        8.60428220        1.02878722
  146      1       1.82937076       21.87161910        5.96299943
  147      1      11.39132985       26.86981399       10.32105584
  148      1      13.70317306        1.79498090       12.02535205
  149      1       7.34078542        1.16116049        7.93905565
  150      1       0.39933733       12.15837149        0.59923394
  151      1       0.09573846        9.15214109        2.40198218
  152      1      15.45878895       20.63571999        4.74059266
  153      1       7.79899431       25.62695492        3.66519572
  154      1      14.10211567       14.38193388       23.39598055
  155      1      24.82739987       17.64978625       19.27017608
  156      1       2.08228378       24.90233916        1.71514535
  157      1       8.72447805        8.28773483        5.45729595
  158      1       1.29789327       14.18566160       12.24395116
  159      1       2.12038704        6.91007613       26.38194985
  160      1       4.45765867       20.77230510       17.79405801
  161      1       5.58744214       16.41956900       18.44760434
  162      1       5.00298208        1.13077539       13.78810149
  163      1      27.44548446        7.08964839       14.34162997
  164      1      12.85012115       15.09081927        9.56512158
  165      1      19.44259169       23.58833410       26.70566940
  166      1       5.89465106       15.30010109       14.87451755
  167      1      11.09894905       18.59969932       17.95011745
  168      1      14.70046162       18.29080011        9.84168905
  169      1      26.60558807        7.24860676        3.02323893
  170      1      11.51240378       24.52570677        2.77023699
  171      1      20.64890752       15.34053138       12.06250146
  172      1       7.39057487       17.91277819        9.23149197
  173      1       1.75925787       14.48878315       21.27544017
  174      1      16.30701620        9.22971601        6.32707798
  175      1       2.25368965       21.12774059        3.70659642
  176      1      18.09550184       13.55815077        8.55428117
  177      1      25.75788139       23.32422623       22.59125461
  178      1      11.56045902       18.19202515        7.90882184
  179      1      25.56927276       18.06982797        4.05369785
  180      1       8.23945372       25.24824567       19.05227925
  181      1      22.67340760       21.01436003       18.74143636
  182      1      15.40699893       21.76891889        2.74699314
  183      1      21.12886987       26.87993216        2.94099539
  184      1      24.96309324        1.49283893       19.39292930
  185      1      21.90930823        8.33466120        6.16317018
  186      1       0.85202355       23.35941485       26.25087614
  187      1      12.61563664       18.43384537       22.56851936
  188      1      17.46352124       22.59811599       27.39797425
  189      1      14.90238504        5.55648813        6.09871779
  190      1      14.16532809       25.55488781       12.41373024
  191      1      10.80429507        3.07873889       21.99700852
  192      1      25.75930174       25.27280105       24.06922288
  193      1      21.80237844        0.98844860        1.61739911
  194      1      10.26436349        3.55580378       26.74140992
  195      1      18.05970495       24.73777589       17.50750799
  196      1      21.36255005       20.63626025       16.92824269
  197      1      16.43488228       25.40605228       12.35353308
  198      1       3.35388267       26.91726546       16.45052658
  199      1       1.22462543       18.07683541       10.20625877
  200      1       3.99632480       15.95610103       26.17667308
  201      1      16.01292651        5.79199339       19.41028902
  202      1      21.97314605       20.53886957       11.21524423
  203      1       3.75574800       24.85749050        3.48504464
  204      1      18.26697830        5.68919373       12.34293904
  205      1       9.14725299       10.58924245        1.86440047
  206      1      26.79210137        5.53196141       21.31006658
  207      1      26.26305067        7.93306215       18.31812146
  208      1      26.85783334        4.88819559       13.20822273
  209      1      12.94127445        8.99150281       25.11524730
  210      1       4.70433209        9.29888227       22.35429454
  211      1      24.81214116       22.20296369       26.74782656
  212      1       0.18800221       17.86268611        4.68498546
  213      1      23.22849394       16.69697569       20.94709756
  214      1      13.15697970       25.87945143       18.13656499
  215      1      14.18418411       15.28157247       21.18583378
  216      1      26.27532277       15.96998178        0.98210015
  217      1       4.86685327        3.20416648       26.43948674
  218      1       3.81298105       18.63137379        6.33778936
  219      1      20.49111551       10.71767601       23.79541170
  220      1       9.91831991       22.36848725       27.23999085
  221      1      11.39020930       26.01827576       25.48089662
  222      1       1.74767465       12.31136565       13.60395215
  223      1       9.78415201        8.85640768       16.12215531
  224      1      17.28046624        3.79628894       19.58774623
  225      1      16.56515119       11.38456785       12.93531180
  226      1      25.54852899       14.39845813        2.60005921
  227      1       6.14902874        5.98148040        0.13377708
  228      1      13.66228084       12.07074866       22.99579633
  229      1      26.77575103       20.21878293       21.59882647
  230      1       7.61085079        5.59849858       10.27946511
  231      1      22.44272158       19.84092841       13.50171317
  232      1       4.39070640       12.16888879        2.32593985
  233      1       1.20151926       19.07270213       21.58938773
  234      1      21.39126574       16.10877078       14.10541531
  235      1       1.76067890       27.07677899       18.23467850
  236      1      17.07060995       24.93277791       23.60703848
  237      1      20.06935096       24.02294556        1.28762604
  238      1      14.18354186        6.07377848       11.45871255
  239      1      22.25277589       25.21333375       17.92733930
  240      1      14.67479494        9.96967499       23.68798664
  241      1      19.52366452        7.84420082        5.42026329
  242      1       5.44347676       18.71455846       23.70264609
  243      1      24.84905424        2.75131855        0.90460297
  244      1      12.07054752       12.83889949        9.58754592
  245      1       6.87045223       24.95945974        7.53249949
  246      1      18.98884328        5.06912283        7.14574820
  247      1      12.12254846        3.60843579       15.84722351
  248      1      22.52975527        9.82323181       11.62521324
  249      1       1.45361061       18.88960235       16.09020452
  250      1      16.09418517       14.16315081       26.59468652
  251      1       2.99997399        1.15373940        3.77058442
  252      1       5.17584755       13.11464246        0.25236809
  253      1       5.75515654       23.49545577       21.51058198
  254      1      11.83631397        6.85096339       25.48203379
  255      1       0.99746881       15.75490300        5.21955246
  256      1      24.25612661        0.29065728        7.87967745
  257      1      24.63254817        5.17988042        7.77327484
  258      1      15.44370723       27.55260176        9.59818673
  259      1      23.39610935       18.15319112        1.42784961
  260      1      21.21036343       19.97083566       20.30752212
  261      1      25.56637469       16.71110180       24.53971770
  262      1      24.90672378        1.27019247       26.64694403
  263      1      19.97434391       16.89108347       24.08295690
  264      1      12.83637212       18.75584526        1.40690680
  265      1      17.49566887       21.21566288        6.11510403
  266      1       7.51226618       26.62579822       10.80044039
  267      1       9.35318414       25.00053864       21.08116347
  268      1       6.95955398       19.92278076        8.19103305
  269      1       5.41178259       21.48209313        9.29490152
  270      1      16.34377440        3.64226286        9.45933971
  271      1       4.91736813       10.93270983       11.65655591
  272      1      21.79579122       12.00215790       20.42459888
  273      1      15.99717157       21.47549533       11.68650806
  274      1       0.02047645        9.84214598        0.12670657
  275      1      22.25011672        3.79675376        5.49177867
  276      1      17.81259202        7.25298415       19.17076712
  277      1       4.90241014       17.18774026       21.93964561
  278      1       8.91510736       22.90762319       10.56335234
  279      1      20.25736642       24.79848790       16.37488043
  280      1       9.61680594        9.64050686        7.14730036
  281      1      26.76530227        0.85348838       22.33116581
  282      1       1.99972361        4.98187236        4.27407236
  283      1      20.91501996        1.14372220       26.03392399
  284      1       2.59143184        5.87183448       17.65293804
  285      1      22.78760567        7.70131270       14.83540876
  286      1      15.51293733       12.59486609       11.19965580
  287      1       4.39058022       14.71477937       24.23008066
  288      1       1.45589801       10.31265162       24.30965037
  289      1      21.44730496       25.38597515       21.61218255
  290      1      10.39394628       11.23827731       21.56362389
  291      1       4.06440349        4.11976660       16.62215628
  292      1       2.94036201       20.68912872       21.68584305
  293      1      23.45690136       25.71555730       27.19346431
  294      1      20.68717382        1.03198632       19.44084925
  295      1       0.12663982       14.09413520       23.00831973
  296      1      17.90806299       17.56809453       21.25336209
  297      1      14.29431451       15.03639508        0.23785473
  298      1       0.55440696        8.45687932       23.32534694
  299      1       4.78424838       27.08847517        0.59704053
  300      1      19.38261553       25.39414158        8.36768500
  301      1      14.64993149       14.67677241        2.48933483
  302      1       7.24202021       11.05955933       25.63348566
  303      1      17.24090927        4.37682231        1.58519723
  304      1      19.96297461        7.16776602       22.63133679
  305      1      16.82576478       23.87992458       15.59439431
  306      1       4.08510729        9.92096289        2.03349318
  307      1       1.54117598       20.30636714        9.48435287
  308      1       9.46030446        0.82314943        7.08594638
  309      1      24.91286243        1.08816012        5.81155659
  310      1      20.20018700       16.96839213       18.22548955
  311      1       0.95681812        3.00541637       27.63025005
  312      1       3.11715403       10.99935908       22.77435115
  313      1      23.81502842       22.18619515       22.99510142
  314      1       1.35789524        1.67700466       18.77000968
  315      1      14.84059215       27.46949861       17.58188278
  316      1      13.24795611       21.44846255        5.42636286
  317      1      25.64621430       18.97422745       11.95862268
  318      1      24.63427704       18.45602632        9.79773624
  319      1       4.20894767       24.75101486       12.32514186
  320      1       7.54590927       24.29808644       13.68180597
  321      1      12.55376285       17.64691217       24.85735463
  322      1       2.03667877        9.34643379        5.53150042
  323      1      20.30924017       13.00678995       12.26976388
  324      1       9.88882186        0.68737042       19.91349324
  325      1      23.93959049       22.63990780        8.01482390
  326      1       8.25257301       26.40552427       12.92113685
  327      1      23.43663814        5.99957644       11.52445460
  328      1      14.80511730        7.73471582        5.25671184
  329      1      21.66009976       22.35428020        7.59932754
  330      1      23.77674752       16.29317778       13.94737847
  331      1       3.77309784        5.19065781       12.56037917
  332      1      22.61164580       18.78458770       21.81907879
  333      1       0.66199508        3.80740353       21.91412368
  334      1      10.94773927        2.16099969       14.29526647
  335      1      26.22356933       21.19931903       11.82027564
  336      1      19.64369804       20.46975205       11.18683570
  337      1      24.84078566        5.19254588       22.61865581
  338      1      19.86802697        4.34973562       11.02094984
  339      1      19.07114771       19.70525646        7.09920910
  340      1       8.79733904       13.05337806       13.38852935
  341      1      11.44099979       11.05546197        1.92862859
  342      1      18.74333099       19.17622103       27.05458154
  343      1      26.95578647       15.86214581       15.42740890
  344      1       3.54160171       25.87595896       23.97428278
  345      1      10.23344475       21.98441139       19.23562451
  346      1      24.09121715       10.92738231        0.86046452
  347      1      13.47515001        5.13305988       25.08806854
  348      1      25.87977725        8.63094861       13.47695002
  349      1      26.24009181        9.58817468        6.93102226
  350      1      18.20873641        1.12108610        7.28390761
  351      1      26.84035654       22.92135560        3.32405775
  352      1       8.10328244        0.30582566       26.41129692
  353      1      12.91459432        2.29394069        8.27760575
  354      1      19.75077517        8.98424734       25.47809863
  355      1      16.12741446       14.90586538       24.34531296
  356      1      19.74506612       12.44883125       10.01863921
  357      1      18.21816636       13.26457751       19.19354652
  358      1      22.65507792       18.81284738       25.63115810
  359      1      25.83461496       25.29339076        9.96967254
  360      1      15.11593492        4.39790083        0.67915704
  361      1      12.36930180        3.04513305       25.69931991
  362      1      10.17025433       20.42325104        2.71747086
  363      1      26.11074487       24.75147846       12.12481995
  364      1      16.17619465        1.16128289        2.09696531
  365      1      18.98057759        0.77629822       17.81636450
  366      1       6.61754476        6.75878945       24.02431357
  367      1       6.66940531       15.73185934       21.68306155
  368      1       8.38798690       25.88844733       27.56256814
  369      1      15.60412742       20.07462424       18.03199059
  370      1      10.84681252       27.50257869       23.69865940
  371      1      26.94300568        3.74382510        1.47590961
  372      1      23.15271848        5.76014806       18.00673378
  373      1      14.34104745       12.64059564        3.50597197
  374      1      16.81689704       15.46627769        2.99205773
  375      1       6.24424373       14.53541778       19.70297858
  376      1      26.13127940       20.48620801        6.43659942
  377      1       9.04210502        8.35721456       19.78842445
  378      1       3.94593007        7.34712975       13.58716898
  379      1      27.05205118       12.80779460        9.50318281
  380      1      24.77110510       19.96410953       18.41639354
  381      1      12.73234126       22.27777318        9.46415954
  382      1      13.06522474       23.70015741       21.30960299
  383      1      23.92240155       10.49949538        9.80191383
  384      1      18.12375745       11.36648220       20.78939522
  385      1      14.35592122       20.57775794       16.08815722
  386      1       5.84029111       19.69818156        6.18109385
  387      1      27.07723121       19.76994604        0.82086339
  388      1       4.23519158       17.86667791       19.83524620
  389      1       1.04220349       10.92882320       17.33109245
  390      1      11.12382416       22.30889351        1.72209904
  391      1       1.62198670       17.65525185       23.47087256
  392      1       3.74162508       27.25910131        7.13952868
  393      1      26.45688535       21.54829328       15.36494832
  394      1       7.28075922        0.39860548       14.29836524
  395      1       4.54236840       27.18397969        3.05001390
  396      1       5.47587375        3.49960087       13.09766960
  397      1       5.62809386       15.32538753        7.29301552
  398      1       6.30218574        0.07613856       20.94794566
  399      1      27.12561977       17.88744218       16.57415660
  400      1       9.03996122       18.36429285       10.85259698
  401      1       7.86629014        1.26670521       10.25030962
  402      1       1.77722188        4.17754350       13.19618604
  403      1       5.67628793        3.32030554        4.07609803
  404      1       7.40778974        8.24302123       13.03124042
  405      1       1.04732801        7.47373023        8.67992331
  406      1       2.71829663        9.69655075       16.10437966
  407      1      25.26311072        2.23337749       10.43583305
  408      1      19.28641356       26.71703162       10.37134416
  409      1      18.37467936        2.67183581       10.49018232
  410      1       7.55296844        5.38215726       17.90139275
  411      1      18.34396555       17.21034107       25.82218200
  412      1      11.86540970       10.87368460       18.34950811
  413      1       6.16114755       25.19895887        0.22840741
  414      1      14.53237377       21.28329814       23.85444072
  415      1       3.10480975       15.64746694       12.25293914
  416      1      12.21774535       14.23687393       27.10834984
  417      1      21.61202264        1.52790178       10.68277158
  418      1      22.89048940        0.01534786       12.94280840
  419      1      10.61012369       26.33177675       12.74132735
  420      1       6.60453369       10.54377174       21.75923446
  421      1       0.61644018       12.43413162        4.11095597
  422      1       7.74246971        9.76128977        3.80293959
  423      1      19.90890904       23.24264169        8.94836818
  424      1      20.70675449        8.45303501       10.68698708
  425      1      22.40911931       24.13340400        0.98653044
  426      1      17.27765804       20.75806007       26.00625824
  427      1      12.77809947       18.43204087       11.16636387
  428      1       3.35299124       25.09470196       14.71431597
  429      1       5.83706559       12.97916237        4.02084390
  430      1       7.40364105       13.01960964       26.93225152
  431      1      24.49168057       22.82942162       14.82762890
  432      1      22.71347353       22.92290009       11.29923794
  433      1       3.54835685        3.34334378       24.41887666
  434      1       0.62766405       22.83456927       16.41748282
  435      1      21.10584631       25.78413471        6.73176599
  436      1       8.40033010       24.93770300        9.41663741
  437      1      15.98214578       23.78624962        8.82453797
  438      1      12.98197860       25.39879504        1.12026801
  439      1      20.73126838       13.11685995       16.68302736
  440      1       3.82668492        7.94849564       17.15095719
  441      1      17.24169055       25.17776701        7.43390725
  442      1      17.28608649       15.76660424        8.70639071
  443      1      10.10487670        5.08312493        0.85736319
  444      1      15.33849423       14.90586184       11.93747274
  445      1      11.01443874        9.05729410       12.57246181
  446      1       4.37393700       22.30351109        3.80631534
  447      1       4.93163202        7.03219324        6.03660407
  448      1      24.91056642       19.00973357       24.80211348
  449      1       6.45690926       27.36032547        4.40011661
  450      1       9.31185168       27.21478070       17.73500920
  451      1      27.56138472       26.70941895        4.06672593
  452      1      19.61377701        9.31888587        0.08009160
  453      1       1.95986615       22.88553198        0.55328168
  454      1       5.93486125       10.86164165       19.49467245
  455      1       0.58268309       21.63340661        2.01459378
  456      1      17.33408049       11.94638608       17.34863188
  457      1      11.11600422       24.17860349       13.76040098
  458      1       4.63380325       15.24054418        0.66729461
  459      1      22.02020217        3.99407766       12.18551665
  460      1      20.11254611        5.56878481       15.39293316
  461      1      19.80354787       12.86931179        1.86501337
  462      1       4.38445154       11.48790814       15.75707283
  463      1       5.27341682       27.54602470       24.50643074
  464      1      13.23483375       15.08799075       13.15392941
  465      1      23.14922741       22.78276232       25.12952386
  466      1      17.08778147        9.26257195       11.96387486
  467      1      24.61879754       20.19512185        4.67187843
  468      1      21.85110854        2.65611718       22.69531076
  469      1       7.77645137       16.39364162        7.48496425
  470      1       5.33855323        6.86595363        3.71673317
  471      1      25.63501608       11.67732369       25.05841828
  472      1      22.87076353        1.64719393        4.85888428
  473      1      22.50660553       12.00516642       15.41508218
  474      1      27.60293849       21.95191710       22.97247434
  475      1      11.45311518       21.26796163       25.89533359
  476      1      15.70421452        2.26581053       20.25695091
  477      1       7.74678679       11.44692103       18.13581204
  478      1      22.79943200       12.31129903       27.21724634
  479      1      11.82772207        1.28944104        4.53689415
  480      1      12.19373485        4.59447993        8.37188337
  481      1      22.35460260       19.73230992        5.13084244
  482      1      14.58307599       22.97928915       15.50071039
  483      1       6.72443611       14.45128413       23.60376556
  484      1      17.89237305       19.15451577        1.62721897
  485      1      18.69524085       14.96749440        1.72490555
  486      1      24.65357536       25.00257783        6.02804335
  487      1      19.44571338       22.24979292        2.84384499
  488      1      16.09299730        4.81214058       11.67273434
  489      1       9.34089619       17.14059409       16.83000310
  490      1      12.23231422       15.78446947       15.23435694
  491      1      11.99731809       20.27047631       16.45769085
  492      1      27.24400636       15.76145141       13.01486328
  493      1       3.17497548       23.00861914       15.69284080
  494      1      19.10152200       26.12336517        2.11288647
  495      1      17.92125367       22.74014147       18.65898038
  496      1       0.05985247       16.93106607        8.45304420
  497      1      23.50499143       25.12864542       24.94230426
  498      1      20.18005597       27.12755904       24.65171569
  499      1      24.68887493       15.48276882       15.89723147
  500      1      18.82879743       13.34495138        6.30771128
  501      1       6.39137895       21.99953389        2.38282880
  502      1      18.18036747       14.04309453       23.45539546
  503      1       1.63447759       19.43244963       13.63472281
  504      1      22.35126112        0.37734998       15.26534934
  505      1      17.87010875        5.38176363       14.73391530
  506      1      16.04814339       10.04772290       18.00552719
  507      1      22.03659531        6.74692014        9.73922340
  508      1      12.89108337        9.38683852        2.69787012
  509      1      13.73620957       27.53067435       13.60248838
  510      1       3.02987384       15.59338359        4.15683545
  511      1       2.54323125       16.47886756       16.14270821
  512      1       8.67017569        8.09271943       23.82603917
  513      1       7.92653746       16.84656310       26.22788426
  514      1      17.86960327       26.60574029       22.13587966
  515      1      12.69489653        4.75663117        6.10025379
  516      1      13.20072767       23.73390101        4.66827294
  517      1       7.12618293       20.20775009       22.95433125
  518      1       1.36852483       10.18367304       12.54263621
  519      1       9.96694177        5.49847729       18.07053335
  520      1      18.63198452       25.43947519       25.40502384
  521      1      23.17608845        1.99437643        9.04863986
  522      1       3.93909418        5.51735569       10.18590980
  523      1       3.13171648       15.94777630       22.65965792
  524      1       4.11555924       12.25360025       13.52795304
  525      1      16.36032320       17.27377500       24.61062945
  526      1       2.51832579       26.58115116        0.09767719
  527      1      12.87761165       25.98476036       20.59734959
  528      1      20.85426460       18.38215485       14.37586987
  529      1       3.92731406       21.83221110       27.15951225
  530      1       4.64342955        3.31558707        6.18618248
  531      1      14.79713490        8.20852852       12.22051073
  532      1       7.30526623        7.76554375       18.15707185
  533      1       6.47489757        3.32051824        7.59270849
  534      1       4.87721827        8.20241442       24.38480762
  535      1      14.22845072        3.44052474       16.83006203
  536      1       3.23548817        3.69828330        0.51903814
  537      1      23.74226395        6.78276563        3.09067750
  538      1      18.98475331       21.18886301       17.07778675
  539      1      20.49071802       23.08518367       14.60671399
  540      1      23.70110194        3.75266369       19.35179423
  541      1       1.21745139       23.86932755       20.12452664
  542      1      12.93894072       23.00002612       23.61716675
  543      1      13.36568600       23.56043995       13.42328147
  544      1       2.62876805       25.70089125       19.99586346
  545      1       3.01068612        1.57689425        6.12397141
  546      1      24.69859094       11.71803319       22.85661282
  547      1       8.01578640       18.94737339       19.89455588
  548      1      10.93014248       19.26705598        9.91057967
  549      1       4.69892656       22.21209522       24.85881629
  550      1       3.39103792       12.61315400        6.71431291
  551      1      23.83337306        2.39328044       12.65830389
  552      1      17.60901613        6.38708232        2.55238599
  553      1      18.50960535        3.12624677       17.73256701
  554      1      17.56158935        1.83281496       25.20203547
  555      1       6.76972425        3.24820073       22.25893266
  556      1      18.99129016        1.65622466       27.30777010
  557      1      17.76690262        7.95749878        0.82589372
  558      1      23.16013046       23.27875581       19.27844898
  559      1      22.82485970       25.34094420        2.85173744
  560      1       0.11019897        7.42776612       20.13104855
  561      1       7.72258933        4.76036253        1.44975411
  562      1       0.65536787       23.74327477       12.61939810
  563      1      20.28254333       16.70581989        2.12447278
  564      1       7.56875905       11.50705184       12.04285934
  565      1      26.83194321       24.27253336        6.73390047
  566      1      26.71833890       13.10274962       19.74734205
  567      1       0.83197319        2.12620040        7.13735513
  568      1      17.35520039        3.27710800        7.21353326
  569      1      27.29957761       24.98593331       16.02846005
  570      1      20.92462433       22.04291851       25.60581543
  571      1      13.40315534       15.20821659        5.95015315
  572      1      17.10491914       20.47221606       13.57693434
  573      1      25.49234804        0.31163627       17.43189977
  574      1       2.60710447       27.00627327       22.11170739
  575      1       8.91761260       18.81205928       25.50098282
  576      1       6.26622545       24.42434579        2.38464356
  577      1      13.11003982        7.45907093       17.74087420
  578      1      14.62415346       19.63497468       21.85858652
  579      1      15.70683321        8.52815902       21.97830089
  580      1      27.14491582       21.58014842        9.69189683
  581      1      21.27291811       18.76070193       23.73977099
  582      1      23.28814483       23.80365815        4.52938300
  583      1       6.74940307       21.14905937       20.72817397
  584      1      24.44240758       15.95898088       10.11572641
  585      1      20.63912564        6.87517015       24.87584881
  586      1      14.60879054        2.00045352        9.79271199
  587      1      25.85453949        5.80772744       11.16401185
  588      1      13.55873879        9.78256154       15.15238822
  589      1      17.20011721        4.75780957       22.98435260
  590      1      21.40688702       20.15015260        7.25420461
  591      1      18.70055590       16.82192038       12.06312179
  592      1       4.91738684       14.41308502       12.98737499
  593      1      11.03196911       14.75178367        3.06035728
  594      1      20.91559535       20.32245049        3.23516135
  595      1      17.84117620       27.65946924        0.74608789
  596      1      25.37474016       26.82599849        4.65927961
  597      1       0.18735178        4.98561422       17.52475462
  598      1       7.38676670        4.34059781       14.12619921
  599      1       8.90291507        4.43317584       25.08278873
  600      1       7.51170155       14.20499089        2.98005192
  601      1      11.75341282       15.90133465        7.73507361
  602      1      12.03968121        1.88704553       23.65743299
  603      1      17.56125311        4.21668593       25.22118498
  604      1      13.70660919        6.26286508        9.22143056
  605      1       3.56275830       12.24038153       26.49062362
  606      1      17.56303921        1.62806187       12.39785928
  607      1      27.26019555       17.16297401       18.86947565
  608      1      27.63634612       26.67985505       25.07039733
  609      1      16.22915120        6.81902547       15.77464539
  610      1      25.85017599       26.44502959       21.71412629
  611      1       4.50871030       12.75491631       19.41073886
  612      1      19.49397033        9.15605316       16.41763369
  613      1      25.41782742       23.31283838       20.12681487
  614      1      11.51937060       26.53698316        4.81960063
  615      1      18.00508015       10.44350851        9.97743671
  616      1       2.09827933       19.47551948       25.08754504
  617      1      13.62336250       26.13137115       10.20776404
  618      1       9.03385951       20.82124965        7.33852072
  619      1       1.98243236       19.93496807        7.17371017
  620      1      10.76888578       19.86122311       22.21744652
  621      1       8.24017828       22.94122725       16.60074203
  622      1      11.95933023        9.55619609        7.22396646
  623      1       5.79166509        0.93678993       26.70038315
  624      1      16.87479197       15.91268289       13.34849624
  625      1      15.21292159       11.40832561        7.15587190
  626      1      22.63358845        3.91093925        7.81468366
  627      1       5.82060765        4.24793849        9.61569476
  628      1      16.01495492       16.64886526       20.23645355
  629      1      10.67639268       22.03432235       23.41449419
  630      1      16.16705150       17.69070574        2.22691600
  631      1      20.62728835       13.57640883       19.10256520
  632      1      24.37228569        6.40327387        0.76213802
  633      1       0.97527831       14.66122165       16.70283425
  634      1       1.26911138        2.86097885       24.03747832
  635      1      18.28086526       22.09657988       14.98927065
  636      1      16.91770503       26.45863083       26.66979019
  637      1       5.68601753       17.66891620       25.96132530
  638      1       9.07044803        8.83731300        0.12740371
  639      1      23.62170232       22.09920202        1.16611762
  640      1      27.49260251        3.94073636       25.59438308
  641      1      10.99061908        1.18412695        8.94789726
  642      1       9.14393764       15.09815399        4.42571823
  643      1       4.70702981       20.22979423       20.06209550
  644      1       1.33610212        2.70489372       11.16877383
  645      1      14.50122714       27.12295668       21.88799986
  646      1      19.33744797       13.75456105       25.54530345
  647      1      21.34379085       15.77618580       27.46332953
  648      1      12.33357098       15.23290982       24.86575049
  649      1      21.56305514       18.26334012       16.75014903
  650      1      20.11821386        6.52854602       19.08272759
  651      1      26.90986788        9.66840464       11.70550771
  652      1       5.23621093       14.02007833        9.26528251
  653      1      25.30127774       12.04893140       18.19832548
  654      1       8.07665424       20.88999594        3.60782454
  655      1       2.02859839       12.79909888        2.26430665
  656      1      11.87128993       13.04492985        5.93508776
  657      1       6.65358201       16.05470250        1.79222384
  658      1      26.23157155       20.37927726       26.27829955
  659      1       8.05241841       22.73321950       18.92009553
  660      1      16.24985907        7.56523583       26.69701515
  661      1      19.40174340       18.52783974        3.32128940
  662      1       0.94965477       16.25075608        0.72524887
  663      1       1.14198328       25.37743170       14.19417754
  664      1      17.12781758        9.81113235        2.43025754
  665      1      15.01632217       14.53232595       17.59267283
  666      1      11.99649781       12.63890773        3.58201945
  667      1      13.10183024       19.78403851       12.99108651
  668      1      21.15165379        9.08929777       22.10892679
  669      1      20.72410332        4.97761178        8.86118311
  670      1      24.07350584        7.56205552       19.21765288
  671      1       8.49504262       11.70965542        6.83302038
  672      1       7.58188209       13.63316621       15.27912276
  673      1      16.37968722       27.30535516        7.49329563
  674      1       1.55998105       12.83425697       10.24719306
  675      1      25.68667826       11.55517864       10.92732347
  676      1       8.21854257        4.80087923        7.07756950
  677      1      20.37302145        4.71100465       17.60353714
  678      1      10.44395431       18.61637268        0.94279015
  679      1       1.96218083       22.79539277       22.06297307
  680      1       3.35637158        2.48777014       19.78947716
  681      1      12.63516441        8.66634584        5.06442049
  682      1      19.92806498        1.97181116       21.61847130
  683      1      15.33478688       23.84849366        3.76974668
  684      1      23.29212593        9.75347947       15.91524019
  685      1       2.30090541        8.83169202        3.19579761
  686      1      22.44647475       10.17102194        2.58459063
  687      1       4.23440898       12.32952402       24.28000576
  688      1      20.70715094       26.29315545       12.37902255
  689      1       5.27983103        8.61806956       18.87466154
  690      1      16.94194578       15.38960131       18.51885888
  691      1      20.94744589       10.24069977        7.22624350
  692      1      15.61350372        5.29952466       26.22820408
  693      1      18.97566395       17.79729386        5.72473638
  694      1       1.90147822       25.52259383       25.69635191
  695      1      21.35111400        6.53573675        2.17333264
  696      1      23.53473113        8.17169987       27.13546027
  697      1      19.02410631        0.68398769        5.15552119
  698      1      20.97417134       11.78781382        3.65776793
  699      1      23.50169505        8.32655808       21.64848234
  700      1      21.15754886       27.60444242        5.15631872
  701      1      25.04348503        8.74969875        8.74242085
  702      1      10.74711321       23.14145958       21.11393683
  703      1      10.50183462        6.72031989       12.09236866
  704      1      22.31914141       21.66105805       15.02180969
  705      1      19.30492991       15.84501497       22.05912996
  706      1       0.22829254        3.12546415        3.59420582
  707      1      10.78091644       26.76836013       21.41276874
  708      1      15.15127060       19.32421484       14.33282275
  709      1      16.42143334       27.60611793       20.60412516
  710      1      23.31702277        4.47038174       25.62181271
  711      1      14.52955037       17.40180912        0.42665393
  712      1       8.70510454        0.57148207       24.13801325
  713      1       5.53279098       17.76652799       14.59590242
  714      1       2.43148776        6.51285869       19.92563464
  715      1      16.31282619       20.08790406        9.81551060
  716      1      10.19318407       19.02594811        6.25147798
  717      1       1.30671005       27.55376800       13.40258493
  718      1      11.32751071       10.70905005       25.46927073
  719      1      25.44802625       19.43840017       16.06054778
  720      1       2.12298778       20.11294718       17.97517141
  721      1      19.13941837        2.61967618        3.81732661
  722      1       3.72718299       10.10215730       27.34718005
  723      1      24.02630375        4.81775516        4.30721830
  724      1      12.28534193       11.83288796       27.40801521
  725      1      10.10365871       13.38104684       20.26121770
  726      1      23.32762246        8.84383595        4.30152620
  727      1      13.68519945        1.93715296        5.98949211
  728      1      23.41231560        7.29709775        7.92979240
  729      1       0.15449841       16.07339362       24.34637113
  730      1      26.71455735        2.70151436        5.63908038
  731      1       0.43914319       21.22980640       25.13128083
  732      1      26.27799017        4.42695833       19.31840609
  733      1       7.31245344       17.98167176       17.83667114
  734      1       1.47141165       11.55875838        6.00526092
  735      1      19.20027836        2.13547695       14.22116410
  736      1       7.72216987        1.86187876       20.41918583
  737      1      20.93222598       14.33287435        6.45788924
  738      1      12.81898018       11.66823810        7.57921362
  739      1      13.80731632       18.71157596        7.77052348
  740      1      23.18425212       14.50305420        2.86123060
  741      1      19.15684015       11.47209069       15.97050473
  742      1       8.25993903       13.62682317       18.82085527
  743      1      22.93351873        6.79695503       25.26112448
  744      1       7.07897584       21.81342290       24.66367514
  745      1       3.34508967       21.33973788       10.64135545
  746      1       0.96665357        0.51727453       23.51833718
  747      1       6.05543602        8.73962037        2.51022864
  748      1       5.72661053       17.27971386       10.77078996
  749      1       9.98770055       26.21442606        6.56587216
  750      1      18.48563589       19.41122331        9.39421114
  751      1       9.22252220        1.74457523        0.08703102
  752      1      22.64682746        2.63297822       15.76413246
  753      1       3.80695433       20.31200979       23.82304778
  754      1      15.72829193        3.36597010        5.44917412
  755      1       7.12868155       18.87260854        4.38252990
  756      1      23.15032360       17.05729200       27.11168291
  757      1       3.82232671       20.25474041       12.72248534
  758      1      25.62556613        9.63903776       26.46044897
  759      1       8.79905654        8.93357792        9.40418693
  760      1       0.12295661       17.98868637       12.27674774
  761      1       3.20425702       17.22635584       13.97742689
  762      1      11.09017226       19.63901532       14.37117699
  763      1       7.42680748        1.66789043        3.66712660
  764      1       2.60565025       15.04151602        1.94829627
  765      1       3.74298767       17.75296712        4.11436644
  766      1      19.19625061       18.70481656       19.58664174
  767      1      14.61778090       18.12420553       25.87180585
  768      1      18.62970747       23.02820285       20.87176386
  769      1      17.08994008       16.50254269        6.51116631
  770      1      20.71272710        8.82762901       18.43998004
  771      1      24.41199792       13.16804969       16.27066871
  772      1       8.70695257       23.40842047       24.16402548
  773      1      13.99538156        1.90668402       18.64391796
  774      1      20.12835184        2.69260233        1.56313155
  775      1      10.45606590        7.17638843        9.75753094
  776      1      20.60698213        5.54495193       21.14607667
  777      1      15.57159356        2.85453667       12.92341515
  778      1      13.27360274       11.80739239       11.26601363
  779      1      19.43381491        9.07973087        8.74786967
  780      1       7.24426272       26.87772829       16.27634045
  781      1       4.79072231        7.68052938       10.02630003
  782      1      24.54524819       26.82670401        2.52061544
  783      1       3.63515645        6.00236276        0.49359026
  784      1       3.71764474        5.15342003       22.99532243
  785      1      13.75753728       23.56541370       17.65881627
  786      1       7.18806484        6.90382888        6.80358521
  787      1       9.66786799       13.61237512        6.20050996
  788      1       4.95484617        1.96666610       23.29410282
  789      1      27.23692776        2.17571944       20.29659134
  790      1      22.09333287       15.37923217       10.03217033
  791      1      21.50815730       13.49149915        8.65835546
  792      1       6.50927614       12.02625520       23.62484713
  793      1      23.95846532       12.20609476        6.04629843
  794      1       6.10663910       26.23397308       19.27771902
  795      1      27.47872913       25.05704112        2.43535351
  796      1      25.03497881       15.18191432       12.29219646
  797      1      25.74473883       13.66983898       21.92989238
  798      1      15.14574053       25.42450642        2.15153975
  799      1       4.51507239       14.24071844        5.41537995
  800      1      10.11487370        6.22846639       24.04388557
  801      1      10.68824519        7.50126616        4.38009826
  802      1      26.44440952        6.51043997       16.42063327
  803      1      20.11317100       20.86602018       23.67664752
  804      1       9.38341264       22.93487970       12.94744971
  805      1      21.17548813       23.62327528        5.73462348
  806      1       1.82842961        9.24380892       26.48075594
  807      1      10.69815174        3.36030265       17.70858126
  808      1      21.05776559        3.69045670       14.31697517
  809      1      21.03252424       20.09204226       26.94078672
  810      1      27.55923696        6.27349889        4.95341046
  811      1       8.55529682       17.04604645       21.50550146
  812      1      15.86121755        5.95677135        8.23151688
  813      1      16.53293223       11.83108861       26.79480217
  814      1       8.34188058       14.70295060       25.26378827
  815      1       7.60483053       24.70555839       22.55185428
  816      1      26.42170677        7.88568086       24.84019255
  817      1      14.53668754       10.97085055        0.06972880
  818      1      11.62070493        2.99431747       12.19836896
  819      1      10.87378663       12.36819922       14.46121033
  820      1       1.76102013       18.28291789       19.49904401
  821      1      13.80654938       21.05842771        7.66715170
  822      1       0.76374165       11.34913988       19.84506449
  823      1       0.73034001        3.62603767        9.01262967
  824      1      10.27727791       14.71483786        0.86053776
  825      1      27.33741821       23.86796027        8.95793517
  826      1       6.15088602        5.22405251       15.95625583
  827      1       0.86630070        0.90874706        2.98155663
  828      1       5.89330782        5.64240505       22.09254763
  829      1       8.82243884        9.59606636       11.75750548
  830      1      26.64275910       10.91888998        3.45174899
  831      1      19.59289162       11.24801915        5.49474507
  832      1       2.19494685        5.39669968        8.53156594
  833      1      15.43100156        0.02007226       15.26972788
  834      1       4.13190478        0.96036532       21.39081501
  835      1      25.87184610       12.26798802        1.69057071
  836      1       8.36346187       24.62820381        5.71653131
  837      1       2.64658835        4.47101094       21.02379130
  838      1       6.67468266       24.53061399       15.99760436
  839      1      22.03329383       26.72814493       19.77187969
  840      1      22.27890547       23.20714366       21.45720107
  841      1      10.34049861       15.37491782       21.61365964
  842      1       5.24855271       18.82833335        0.39122316
  843      1      12.28411811       10.17787046       20.47338880
  844      1      24.98717875       15.67522954       26.59806389
  845      1      13.30505087       24.82159280       24.94445728
  846      1       2.17669306        0.51817778       11.20754176
  847      1      24.35470520       15.52027595       22.74667743
  848      1       5.82571431       23.17350287       12.68753626
  849      1      19.13934526        7.93675866       12.47648361
  850      1      17.50956826       21.45902722        1.79153162
  851      1      15.62269985        2.40873844       15.23694595
  852      1      16.72523216       10.69081558       24.65610596
  853      1      15.16038631       13.33163938        5.64849506
  854      1      11.63953482        2.31591601       19.61877451
  855      1      11.64329979       22.44756958       17.38097760
  856      1       1.90653027        8.48433427       14.14439116
  857      1      23.21257691        0.79207924       22.86395320
  858      1       7.15728176       21.15512301       15.35636625
  859      1       9.02043446        4.32551856        5.00471803
  860      1      10.46419893       24.01960435       16.05714894
  861      1       3.33367943        5.23775475        6.36323420
  862      1      14.26689936        1.49981187       23.22235567
  863      1      20.22162050       10.23202676       20.29646010
  864      1      18.55473418       12.36750523       13.77924217
  865      1      27.21756661       26.36109564       17.89688801
  866      1       6.79787910        8.18892583        0.32179523
  867      1      11.05239757        5.26366067        4.51392209
  868      1      22.75930415        0.30860552       27.21964373
  869      1      23.66699083       17.10804858       17.26261856
  870      1      20.97768361        4.70351638        0.61029212
  871      1       5.24853638        8.60289531       12.11771994
  872      1      25.02886621       10.07147042       21.29663272
  873      1      13.96249786       16.39754875       16.67258192
  874      1       3.41368719       17.02393008       10.18981528
  875      1       4.47084465       15.29780065       16.72202355
  876      1      21.84844423       13.80784774        0.98789168
  877      1       2.92393636        0.86387982       14.82156338
  878      1       3.13302350        6.60079296        2.81005637
  879      1      26.09476618       27.62582672        9.30370776
  880      1       6.78611299       11.32555047       15.96856947
  881      1      15.09608925       18.46307720        4.20291681
  882      1      22.95922756        9.28757479       18.17558622
  883      1      13.78790243        5.83670190        1.96310458
  884      1       5.19224128       26.29397896       10.79894965
  885      1       2.73938219        7.06712459       24.07175505
  886      1       0.36254319       27.63534211        7.90397673
  887      1       1.91106984       24.52489222        9.16034787
  888      1      18.82042173       17.17141142        9.75145018
  889      1      22.46518235       16.68324065        3.02085764
  890      1       1.52676933       15.53435215       26.26660787
  891      1      12.31380604       16.61832983       21.02585526
  892      1      13.62899596       21.82443086       11.81399484
  893      1      25.90821004       25.76498472        0.60534690
  894      1      12.17855177       27.20037170       27.41730681
  895      1       2.85424054       13.81653940        8.64109611
  896      1      19.44471795       26.24361366       14.52532822
  897      1       2.96524940        8.83944300        9.06252974
  898      1      22.82800467        4.42232325       21.46116951
  899      1      25.15214469       26.57376293       13.36611627
  900      1      17.53048394        7.22981626       22.94831057
  901      1      19.22566889       22.80502611       11.11222328
  902      1      17.08102243       25.94098657       14.49347906
  903      1      26.68009540        6.00113665        0.92465120
  904      1      17.79094598       14.34435402       14.77903390
  905      1      14.24463199        8.76944549       27.04005196
  906      1      17.10631864       26.91054876       18.36368125
  907      1      23.94498442       27.61693551       20.79392621
  908      1       0.60071791        2.82126298       16.75731131
  909      1      11.20691072       26.27396399       16.66603612
  910      1       9.60832212       26.10068967        2.10546633
  911      1      26.76028575        7.83330096       10.14879573
  912      1       6.00445665        2.47782071       10.94969545
  913      1      20.39464879        7.80218794       14.66148732
  914      1      22.09499177       26.47041278       23.57912347
  915      1       6.71211168       11.29085507        5.36413575
  916      1      24.61021532       22.18136956        3.32705467
  917      1      22.23049612       20.21279712        1.29787590
  918      1      26.50775372       10.08870243       17.36813126
  919      1       5.35793521        7.35571951       15.49972526
  920      1      11.31836175       12.10348145       23.54644300
  921      1       8.98388011       20.78714438       13.83190985
  922      1      13.56692398        5.23637397       22.62676793
  923      1      17.52021760        8.51500050       24.96146745
  924      1      17.28426816       24.52616325        5.15400122
  925      1      26.12247801       14.99832931        8.66708464
  926      1       5.76298580       18.80669950       12.52543165
  927      1      11.58963811       27.53666035       14.53443647
  928      1      16.44455727       12.02102676        9.08886498
  929      1      13.65808095        1.27767947       26.75274247
  930      1      17.78874641       19.27451543       17.69579459
  931      1      19.60736104        1.09241017        9.34120083
  932      1       3.55769376       13.15874525       17.25488174
  933      1      20.00331257        4.41790350        5.04865419
  934      1       2.22421480       26.89062524        9.11039216
  935      1      21.02149760       15.72150174       20.18255319
  936      1      15.43081027        7.29637778        3.11018558
  937      1      14.88668428       10.64710050        2.35212224
  938      1      22.41214916       11.95928497       12.96006401
  939      1      14.73431665       11.75705888       14.47288878
  940      1       8.15440952       22.21083537        5.58462081
  941      1      15.82199416       17.18924891       15.19553816
  942      1       5.71848605       21.98035762        5.75905241
  943      1      12.62426760        7.77976856       19.98590311
  944      1      12.23117709        2.14317972        2.37235810
  945      1      26.08267855        4.25212261        9.45695483
  946      1      15.45204431        0.52728602       25.32884427
  947      1      12.48357402        8.28478495        9.20244055
  948      1      15.59617796       22.28609841       18.77484733
  949      1      21.39267450        3.23755758       24.96395767
  950      1      25.27787911       20.71240077        8.55456782
  951      1      10.40744924       21.55687202        9.27152918
  952      1       8.68991194        9.49499013       21.82446740
  953      1      17.99647580        7.48114219        7.47353104
  954      1       9.94178591        2.71614215       10.36870353
  955      1      23.67520227        8.03167138       12.76255752
  956      1      21.05314497       15.19546031       25.18832059
  957      1      13.48228169       21.71999455       27.02800409
  958      1      13.61512725       24.43048051        8.61590830
  959      1      15.18845331       15.96953134        9.83965499
  960      1       9.63402890       13.48806082        9.82098270
  961      1      21.05526787       17.11436726        8.90336906
  962      1      26.89660980        2.39677902       12.23769475
  963      1       6.08440166       27.11415131        6.83654006
  964      1       8.66380553       14.66054051       11.67506725
  965      1       8.02587553       20.88963678       26.57442131
  966      1       7.38218342        8.91315625       15.46218944
  967      1      18.34709078       11.28410909        0.76633654
  968      1       4.52495549        7.50287977       20.75482464
  969      1      11.77852392       13.19087224       18.55880250
  970      1      26.39814833       21.27286870       19.53186176
  971      1       0.33580625        8.06356463        6.48466372
  972      1      18.33688511       11.68221194       23.12684418
  973      1       4.83890355       23.23538297       17.45355969
  974      1      11.23963459       10.02402285       14.68609256
  975      1      25.11066919        1.51109176       24.06375530
  976      1      20.85273925       23.91037152       12.41916826
  977      1      25.90849011       12.30680082       14.72487425
  978      1      17.14549636       27.22617744       11.19388830
  979      1       0.94570785        0.69480929        0.59826655
  980      1      14.17935957       11.58954811       20.74625082
  981      1      23.21542028       25.90472542        7.69686163
  982      1      15.16816349        3.46761687       22.28366274
  983      1      24.23570840       13.48634374       25.84020283
  984      1      12.89608277       17.39037404       18.71755108
  985      1      25.82039033        4.85474931        5.76991060
  986      1      14.83672578        5.75284749       17.38829928
  987      1      11.57535605       19.88163861        4.57458365
  988      1       3.56109671        3.27102373        2.91126185
  989      1       8.63307894       17.34629266        5.44737970
  990      1      25.79427163       13.60121116        6.52146124
  991      1       3.97953734       23.69733979       23.14526547
  992      1      17.72700821       16.93268073       16.80849113
  993      1      13.29667880       25.51227363        6.28898722
  994      1      22.34650105       13.33568584        4.75193339
  995      1      24.37907288       18.61264462       13.92689369
  996      1      19.25420280       25.27155017       20.89117384
  997      1      12.22482671        5.28155053       12.57211025
  998      1      14.30727593        2.18112123        1.09657761
  999      1      18.03320223        9.65917859        4.72231729
