run_id:  1011
total_energy:   -3028.4170962468675
  1000 atoms
  1 atom types
  0.0   27.664  xlo xhi
  0.0   27.664  ylo yhi
  0.0   27.664  zlo zhi

 Atoms

    0      1       0.02479931       18.75387196        6.77082325
    1      1      14.71093206       18.58744129       19.62246130
    2      1      19.85061608       15.22950050       15.88200309
    3      1      17.40612342        8.33789545       17.15691130
    4      1      12.87474753       12.81869473       13.35094818
    5      1       8.79898564       16.68788247        0.73389871
    6      1      13.87761857       23.99621196       26.97810312
    7      1      24.73026632       22.87958879       12.51248507
    8      1       0.65006955       26.01082639        6.12358595
    9      1      26.76726872       27.52909310       27.08348529
   10      1      26.26108406       24.02375431       26.52439110
   11      1      24.72510943       12.82415593       12.64708465
   12      1      12.01858460       16.24666059       11.54520854
   13      1       8.78499370        2.83975393       23.39258305
   14      1      22.32798068       12.16912169       22.81652239
   15      1      16.02683050       21.62801307        8.01394194
   16      1      22.72642202       17.44271524        5.23892082
   17      1       5.63900649        9.39844799       26.30847579
   18      1      24.99453850       10.29538173        5.07103231
   19      1       8.60879324       12.95252423        1.26117121
   20      1      25.63535960       18.08928215        1.77814540
   21      1       2.97570674       23.64486214        7.22041224
   22      1       4.99014361        2.29868320       17.96695578
   23      1      10.39995885       14.37461038       23.85389949
   24      1       0.39677197       14.88928549       19.06394653
   25      1      27.44121861        9.46539349       21.18858437
   26      1      12.89256638       18.25362797        3.60782822
   27      1      22.33708200       19.10897251        9.30067278
   28      1      17.70830797        3.23544767       15.55436580
   29      1      27.30069585       22.38015347        5.61094232
   30      1       4.80246311       21.73720654       14.27033299
   31      1      16.68110007       18.76085106       22.90212493
   32      1      16.96010747        3.01897219        3.32275985
   33      1       9.79731705       16.63484115       12.29097105
   34      1       8.22616048        6.07683384       12.54522671
   35      1      15.74455686       27.24161556        3.57180203
   36      1      10.63798110        6.59099393       20.12215830
   37      1       7.07595307       26.92399467       23.02355239
   38      1      21.89061308        2.73980220       18.06196433
   39      1      10.74120221        0.56661816        1.29663484
   40      1      10.84830254        7.20777950       27.64872357
   41      1      10.63685003       25.35478898        8.65085139
   42      1       4.49696968        0.64479507       11.50778607
   43      1       8.92847650       18.78984075       23.14983868
   44      1       1.35208294       13.16062393       26.41490996
   45      1      23.74682597       10.97626961       19.48095067
   46      1      14.36231779        7.66180766       14.48464010
   47      1       6.63549026        5.00742639       25.70428174
   48      1      14.98859446       20.36114032       25.91046320
   49      1       9.77127524        4.84154238        8.97494281
   50      1       1.38956655       18.50924027        1.07150812
   51      1       7.39349879        2.42951333        1.29990630
   52      1      24.50716620       19.90762771       22.69504610
   53      1       0.16854655       21.45816203       13.44027774
   54      1       6.88148712       21.90030401       11.08495465
   55      1       4.66356943       24.45955272       19.59530223
   56      1       1.88327912       18.82966304        3.35607576
   57      1       5.74156104       11.75585444        9.30484492
   58      1      27.17139645       11.73239850        7.35898802
   59      1      23.36972056        4.40741793        0.19858492
   60      1       2.39311616        3.03535186       15.24712834
   61      1      18.80177103        0.71067711       23.30600976
   62      1       8.10617150       11.70570472        9.28531096
   63      1       5.42357699       27.55246602       17.39943928
   64      1      20.46028699       21.74443013       21.57589959
   65      1       7.08894253        5.14078414        3.62306169
   66      1      15.98878103       13.21319368       15.98118085
   67      1      24.48731271        7.18832104       23.52207760
   68      1       0.18720467       12.27872097       24.60969698
   69      1       7.16793136        2.97824734       18.44742144
   70      1      10.41515357       17.35673276       14.61381486
   71      1      13.74692337        9.70593720       17.37093753
   72      1      13.30456877       21.13466876        1.54184637
   73      1      24.85989091        3.51527790       14.75803891
   74      1      26.34883001        1.82649058       15.77342410
   75      1       2.67068097       10.67576999       10.63393493
   76      1       2.58955468       23.55476486       11.19758584
   77      1       7.73242867       19.95326375       12.16573263
   78      1       3.84904690       16.84433038        7.79556555
   79      1      23.71030326       26.56889142       16.60043867
   80      1       6.99210587        7.53113090        9.04185599
   81      1      18.82778535        3.95832551       21.33841320
   82      1      11.03689342       18.98652944       26.24804098
   83      1      14.75438742       27.45092542        5.79074373
   84      1       0.72711850       21.95469573       18.58293346
   85      1       5.65168648       17.99700945        2.76296096
   86      1      26.84528857       25.12111711       19.91910707
   87      1       9.58007563       14.99169396        8.02844018
   88      1      25.32051145        3.75713365       24.46417011
   89      1      24.22132416        5.79213132       15.84631801
   90      1      11.79765436        4.56646765        2.41812523
   91      1       0.55799759       12.56215693       15.62947097
   92      1      19.99886422        0.45286418       15.60436812
   93      1      16.11640305       10.23480827       20.35227279
   94      1      22.80045028       14.15729350       24.07746602
   95      1      17.74130397       20.77505907       23.72427432
   96      1      10.14221243       19.78000464       19.79815861
   97      1      12.97175793        9.47517546       11.25552791
   98      1      25.52690253       10.06417910       15.25606418
   99      1      27.54857085        6.21918117       26.29100562
  100      1      22.74870326       11.60833116        8.02951207
  101      1      15.04458643       26.03976818       23.98839069
  102      1       9.00237013       14.69012520       16.86522449
  103      1      18.92540377       22.92822331        5.01473276
  104      1      17.89320788       26.54553420        4.08121564
  105      1       2.91863221       25.45771121        5.80051847
  106      1       9.70077370       10.01463910       18.14997658
  107      1      11.21766016        5.35936931       22.13156693
  108      1      23.79597018        1.42978510        2.59705410
  109      1      16.05821647       24.53245500       27.64746570
  110      1      13.88712828       13.62202801       19.52779606
  111      1       1.78051438       15.70180607        7.48893312
  112      1      11.09857225        6.91669849       16.52768537
  113      1      12.92394166        7.87252696        0.92899118
  114      1      23.72038868       24.41334762        9.51543101
  115      1      17.08132231       14.61877154        5.27512316
  116      1      19.88316708        4.82547282       25.91022109
  117      1       8.66240903        2.37281400       14.72442484
  118      1      18.93739693       19.04140874       12.98188855
  119      1       8.89446737        2.11592070       17.06111270
  120      1      12.54794963        5.88664958       14.81554107
  121      1      18.04771818       15.09798852       27.20989244
  122      1      26.93983838       14.25488505        4.59870170
  123      1       5.83684452       19.22793831       16.48937400
  124      1      14.48654250        6.79589950       21.04800451
  125      1       2.63870100       12.33793426       20.88242599
  126      1      19.64000173        6.36393485        3.68701599
  127      1      11.13420331       13.92712741       16.32592058
  128      1      20.90731014       16.68448471        6.56661900
  129      1      14.96884912       22.20482849       20.95210675
  130      1       5.04220906       11.00720469        7.09365044
  131      1      14.88070114       17.28686634        6.22499096
  132      1      25.03765140       25.13305795       15.28713488
  133      1      16.88354770       22.71814378       22.48702860
  134      1       5.22398606       23.20205862        7.68332122
  135      1       6.06932369       21.00128659        0.34443365
  136      1       9.51565800        2.03778112        4.97003066
  137      1       3.01647026       19.46202059       27.32989555
  138      1       6.29165254       15.02031290       11.20880510
  139      1      12.87391456       15.92418536        3.78495421
  140      1       9.61513899       24.50009781       26.10990774
  141      1      26.82522262        0.62723335       13.77393477
  142      1       9.16659285        9.71464439       25.60113191
  143      1       3.87887442        9.00890954        6.87716560
  144      1      16.95901584       23.50734937       11.04197072
  145      1      21.63281989        8.62898582        0.94198843
  146      1       1.83082104       21.87578153        5.97581468
  147      1      11.43498541       26.91209471       10.26583623
  148      1      13.73839199        1.84206034       11.98154527
  149      1       7.36041502        1.17790959        7.91602969
  150      1       0.38884144       12.14667890        0.60342838
  151      1       0.08922667        9.14769489        2.40166853
  152      1      15.44316784       20.67175557        4.74948315
  153      1       7.80857740       25.63521743        3.65616540
  154      1      14.08737156       14.34921972       23.45767896
  155      1      24.77281976       17.61088226       19.28494410
  156      1       2.08933731       24.89778718        1.71691429
  157      1       8.72942808        8.30827226        5.44607733
  158      1       1.27675921       14.16866709       12.24154676
  159      1       2.13017061        6.89729399       26.37436723
  160      1       4.27202952       20.58211334       17.92492730
  161      1       5.53084308       16.35674543       18.47258958
  162      1       5.05901429        1.12234051       13.78704932
  163      1      27.45776651        7.06830974       14.32183408
  164      1      12.82875442       15.11617884        9.59548695
  165      1      19.43133104       23.57164919       26.70325942
  166      1       5.84999043       15.26011863       14.89509545
  167      1      11.06560054       18.61845255       17.94332273
  168      1      14.68088061       18.31844794        9.86458965
  169      1      26.60395214        7.24021068        3.01121621
  170      1      11.51829706       24.53995036        2.75288792
  171      1      20.63093338       15.34369973       12.06785351
  172      1       7.38041672       17.94175395        9.27674475
  173      1       1.74255699       14.46784292       21.29016685
  174      1      16.29578367        9.26502836        6.30436417
  175      1       2.25128531       21.12964389        3.71717745
  176      1      18.08174130       13.57923787        8.57354424
  177      1      25.73211439       23.30146261       22.59696320
  178      1      11.53765558       18.22054628        7.93889901
  179      1      25.55352860       18.06977464        4.06051812
  180      1       8.27970470       25.22120355       19.00386798
  181      1      22.63917768       20.98268279       18.75950077
  182      1      15.39423169       21.79349061        2.74826309
  183      1      21.13605647       26.88213953        2.93120268
  184      1      24.98636892        1.45627217       19.38200489
  185      1      21.89678678        8.34413898        6.14066911
  186      1       0.84584226       23.34227879       26.25424815
  187      1      12.58380968       18.42258614       22.57693298
  188      1      17.45156583       22.58840202       27.39290455
  189      1      14.90925771        5.59730744        6.06381094
  190      1      14.20142325       25.59809640       12.38964152
  191      1      10.82115068        3.09675443       22.00541646
  192      1      25.75425404       25.24702935       24.07836696
  193      1      21.82476150        0.97992375        1.60532530
  194      1      10.28718300        3.58040425       26.73327552
  195      1      18.06073677       24.73259495       17.51257219
  196      1      21.33411839       20.62223460       16.94077620
  197      1      16.46459727       25.43217564       12.33761934
  198      1       3.39603637       26.87542481       16.43973165
  199      1       1.21227798       18.07703696       10.21406380
  200      1       3.97564955       15.94725872       26.19820669
  201      1      16.03531639        5.78901196       19.40360439
  202      1      21.96206110       20.53945044       11.22643305
  203      1       3.76351380       24.86052254        3.48821649
  204      1      18.27933828        5.70606552       12.32545109
  205      1       9.12766101       10.60693605        1.86446914
  206      1      26.82486352        5.49065042       21.28427787
  207      1      26.29500205        7.90774020       18.29786741
  208      1      26.87389137        4.86507172       13.19031577
  209      1      12.97042239        9.04813029       25.12489094
  210      1       4.70554607        9.28544268       22.35400018
  211      1      24.79837464       22.19016829       26.75250261
  212      1       0.17114599       17.86263728        4.69669086
  213      1      23.18445397       16.66023355       20.97210394
  214      1      13.19533229       25.91783166       18.13164110
  215      1      14.18802897       15.27087552       21.23405399
  216      1      26.24965520       15.95899803        0.98795418
  217      1       4.88783348        3.19438278       26.41487684
  218      1       3.80269654       18.63651188        6.35622157
  219      1      20.56723869       10.60991693       23.71294904
  220      1       9.91140773       22.37566771       27.23538579
  221      1      11.39464961       26.02629329       25.47362658
  222      1       1.74125746       12.29714670       13.59964130
  223      1       9.79277886        8.86702632       16.12076108
  224      1      17.29475644        3.78084784       19.56527279
  225      1      16.56029013       11.40104261       12.93792372
  226      1      25.52666861       14.39142929        2.60775303
  227      1       6.16039426        5.98306382        0.12310432
  228      1      13.68067954       12.05263277       23.01936929
  229      1      26.72673441       20.18748231       21.62703904
  230      1       7.62334380        5.60940908       10.26344328
  231      1      22.42319618       19.83400554       13.51253107
  232      1       4.37285643       12.16377368        2.33429746
  233      1       1.13885729       19.02406299       21.64004707
  234      1      21.36873878       16.10892482       14.11134319
  235      1       1.79129064       27.03367987       18.22439795
  236      1      17.06267266       24.91242369       23.60732393
  237      1      20.06310396       24.02780350        1.27792783
  238      1      14.20280376        6.10824478       11.43251719
  239      1      22.25501747       25.18753691       17.92030573
  240      1      14.75178761        9.98479810       23.73353594
  241      1      19.50438121        7.89269600        5.36881816
  242      1       5.41737877       18.69311025       23.73224062
  243      1      24.87001190        2.73711921        0.89568110
  244      1      12.05419017       12.86128810        9.60493865
  245      1       6.88829115       24.97137443        7.53152086
  246      1      19.00065748        5.10756053        7.10243547
  247      1      12.16165677        3.66058077       15.83270405
  248      1      22.53030137        9.81547232       11.61853909
  249      1       1.40245369       18.83181536       16.11334590
  250      1      15.93296836       13.75888514       26.92287854
  251      1       3.01171058        1.15424465        3.76312150
  252      1       5.15579609       13.11253787        0.26338514
  253      1       5.74728001       23.46548443       21.52276156
  254      1      11.87731855        6.89799778       25.46959123
  255      1       0.97989835       15.75461937        5.23074436
  256      1      24.26323323        0.29380480        7.86774058
  257      1      24.64208173        5.18223272        7.75752288
  258      1      15.47240801       27.58629872        9.57084558
  259      1      23.38044250       18.14469560        1.42956929
  260      1      21.17960097       19.93461874       20.32951308
  261      1      25.52601815       16.68121258       24.55518832
  262      1      24.92019521        1.25213476       26.64018487
  263      1      19.93162319       16.79570577       24.14859002
  264      1      12.81942198       18.77222972        1.42147447
  265      1      17.49129121       21.23868852        6.11823452
  266      1       7.56341034       26.63909462       10.76937775
  267      1       9.36773465       24.98226000       21.05340055
  268      1       6.94619101       19.94715448        8.22709513
  269      1       5.42832185       21.51070757        9.35044638
  270      1      16.36507947        3.67762723        9.42469368
  271      1       4.90937098       10.92412656       11.65182710
  272      1      21.81007430       11.97123068       20.40341406
  273      1      15.98835010       21.49824196       11.69142946
  274      1       0.01339792        9.82969776        0.12647616
  275      1      22.25240473        3.81327400        5.46050598
  276      1      17.84581286        7.23515387       19.15057780
  277      1       4.87823321       17.15129970       21.97454389
  278      1       8.92291672       22.90757531       10.56597924
  279      1      20.25537371       24.78816890       16.37535656
  280      1       9.61565340        9.66021411        7.13861265
  281      1      26.78577458        0.81783670       22.31285595
  282      1       2.00584740        4.97811500        4.26359455
  283      1      20.93069443        1.11208306       26.02263507
  284      1       2.61642782        5.83613067       17.64155593
  285      1      22.80086282        7.68320114       14.81843752
  286      1      15.50348107       12.61535830       11.20886040
  287      1       4.37680643       14.69391237       24.26008422
  288      1       1.44963040       10.29716149       24.31259414
  289      1      21.44171538       25.35872443       21.60576002
  290      1      10.40027878       11.23618981       21.56926623
  291      1       4.09614242        4.08392595       16.60924883
  292      1       2.88145429       20.62943655       21.73256218
  293      1      23.45895372       25.69880238       27.19115769
  294      1      20.70703749        1.00647465       19.42172962
  295      1       0.10355002       14.07358286       23.01793044
  296      1      17.87883387       17.52582674       21.29926882
  297      1      14.21743075       15.03377679        0.32903233
  298      1       0.57073525        8.43661576       23.31997145
  299      1       4.79477805       27.08992454        0.58553039
  300      1      19.38967166       25.41214527        8.35679960
  301      1      14.57760649       14.74611257        2.57717463
  302      1       7.23584918       11.06129810       25.64118003
  303      1      17.24129644        4.47756080        1.54228971
  304      1      20.00483812        7.07914773       22.52068426
  305      1      16.81762144       23.89156856       15.60299831
  306      1       4.07932447        9.91655663        2.03330095
  307      1       1.53678700       20.30827588        9.49321807
  308      1       9.47845965        0.85059489        7.05786091
  309      1      24.91832433        1.08963629        5.79947090
  310      1      20.16257323       16.94426647       18.24857624
  311      1       0.97591572        2.99084987       27.61782012
  312      1       3.11433295       10.98218971       22.78405996
  313      1      23.79002183       22.16093166       23.00531137
  314      1       1.38592967        1.63770791       18.74842828
  315      1      14.88827659       27.48595205       17.56749158
  316      1      13.23386501       21.48563435        5.43596381
  317      1      25.62674020       18.97086644       11.96345804
  318      1      24.62074590       18.45977810        9.79938535
  319      1       4.25848886       24.74420794       12.38297636
  320      1       7.76755065       24.31922989       13.64059899
  321      1      12.52410960       17.63903025       24.86959908
  322      1       2.03367080        9.34514900        5.52778818
  323      1      20.30181471       13.00883521       12.27536961
  324      1       9.91767797        0.72417053       19.94228675
  325      1      23.93870037       22.64776705        8.01843444
  326      1       8.34939308       26.44780324       12.86183071
  327      1      23.44258666        5.98795255       11.50122645
  328      1      14.80831204        7.77500272        5.21532619
  329      1      21.65872014       22.36827927        7.60117726
  330      1      23.75005999       16.28290194       13.94772975
  331      1       3.79040001        5.17765277       12.55025994
  332      1      22.56783677       18.74289900       21.84944271
  333      1       0.69414275        3.76813691       21.89030436
  334      1      10.99882819        2.23773961       14.26260192
  335      1      26.21848197       21.19347594       11.82711673
  336      1      19.63223447       20.48085464       11.19621386
  337      1      24.87891981        5.14321398       22.59194314
  338      1      19.87577604        4.37381090       10.99510716
  339      1      19.06312636       19.72733194        7.11451471
  340      1       8.78656669       13.06000855       13.40115961
  341      1      11.41103966       11.10883615        1.92526447
  342      1      18.71023285       19.13758799       27.07687805
  343      1      26.90102761       15.84767814       15.42139532
  344      1       3.54980924       25.85334250       23.97025349
  345      1      10.11027229       21.98842294       19.15683182
  346      1      24.09314467       10.92644436        0.85369956
  347      1      13.50370642        5.16956015       25.07615375
  348      1      25.88858168        8.61211138       13.46356902
  349      1      26.23392105        9.58297401        6.92170062
  350      1      18.22197326        1.15667090        7.25149826
  351      1      26.83853754       22.92040861        3.33062467
  352      1       8.11602909        0.31577592       26.39883654
  353      1      12.93947510        2.33247992        8.24125167
  354      1      19.88454043        8.82075624       25.36549463
  355      1      16.06824986       14.71283707       24.55681856
  356      1      19.73416683       12.45753031       10.02531169
  357      1      18.21865942       13.25256977       19.18558436
  358      1      22.61455667       18.77521041       25.64958779
  359      1      25.84010232       25.29257644        9.97362929
  360      1      15.12020489        4.46400706        0.64660426
  361      1      12.39275497        3.07404224       25.68826632
  362      1      10.15589823       20.44582318        2.72789115
  363      1      26.12578567       24.73875470       12.12782574
  364      1      16.19552483        1.21683462        2.07283438
  365      1      18.99937332        0.76775347       17.80073801
  366      1       6.62976274        6.75403903       24.01720433
  367      1       6.65249439       15.70827377       21.70143573
  368      1       8.39797393       25.90074036       27.55640040
  369      1      15.56888112       20.07631032       18.04188493
  370      1      10.85963726       27.50625600       23.68873986
  371      1      26.96178045        3.73387005        1.46217513
  372      1      23.18075986        5.73107379       17.98780249
  373      1      14.28193422       12.70306468        3.54889162
  374      1      16.77646201       15.52416911        3.05771146
  375      1       6.22447302       14.49681880       19.72545230
  376      1      26.12660490       20.49180023        6.44297839
  377      1       9.04878894        8.36132242       19.78919221
  378      1       3.95674723        7.33342823       13.57829185
  379      1      27.04152373       12.80150120        9.50106590
  380      1      24.73079950       19.92751858       18.43082423
  381      1      12.72817737       22.31187516        9.47066983
  382      1      13.04608750       23.68717964       21.27869112
  383      1      23.91879707       10.49341621        9.79588636
  384      1      18.14687695       11.32704737       20.73747733
  385      1      14.30870043       20.60302559       16.10015545
  386      1       5.82781166       19.71203863        6.21217492
  387      1      27.05960362       19.76215543        0.83354405
  388      1       4.15265758       17.76114116       19.87596325
  389      1       1.06935154       10.92320925       17.33186988
  390      1      11.11556942       22.32259820        1.71724349
  391      1       1.59146547       17.62249439       23.51406866
  392      1       3.75151882       27.26308736        7.13943311
  393      1      26.43783811       21.52162719       15.37000694
  394      1       7.37221515        0.42657086       14.26180284
  395      1       4.55425544       27.18703794        3.04273689
  396      1       5.50453711        3.49638979       13.08517503
  397      1       5.61686192       15.33654861        7.31120021
  398      1       6.32046881        0.04155184       20.90217396
  399      1      27.07100376       17.85201527       16.58689120
  400      1       9.01774723       18.40514383       10.91302546
  401      1       7.89526433        1.28282918       10.22129465
  402      1       1.79992535        4.15459923       13.18633270
  403      1       5.68868047        3.32739278        4.06163851
  404      1       7.41401711        8.24857282       13.02416507
  405      1       1.04819450        7.46534176        8.66996723
  406      1       2.72263861        9.66427093       16.09794336
  407      1      25.27705495        2.22505276       10.42894503
  408      1      19.30930670       26.73963767       10.35392449
  409      1      18.38921986        2.69775464       10.46062243
  410      1       7.56567491        5.38136566       17.89652700
  411      1      18.29402740       17.12707954       25.89315496
  412      1      11.87311218       10.87861647       18.35821922
  413      1       6.17428576       25.20185066        0.22513240
  414      1      14.50623106       21.27093282       23.84399129
  415      1       3.08305559       15.62564729       12.24752024
  416      1      12.14164883       14.28380925       27.14967030
  417      1      21.62587705        1.54564712       10.65714784
  418      1      22.91353775        0.00404262       12.93347864
  419      1      10.69007730       26.42061511       12.67976437
  420      1       6.60526014       10.53567958       21.76448625
  421      1       0.60328092       12.43119080        4.11559156
  422      1       7.73112054        9.77575390        3.80268606
  423      1      19.91214625       23.26185077        8.94714549
  424      1      20.70778439        8.45491451       10.67055868
  425      1      22.40399911       24.12742312        0.98721857
  426      1      17.25747021       20.72817219       26.02062113
  427      1      12.75794586       18.46049986       11.19286415
  428      1       3.36961334       25.04874314       14.76706632
  429      1       5.81151287       12.98249076        4.03272783
  430      1       7.38295396       13.02270689       26.94317381
  431      1      24.48297262       22.81545949       14.83093325
  432      1      22.71389346       22.92069889       11.30229521
  433      1       3.57431997        3.31399199       24.39557751
  434      1       0.61361202       22.79279219       16.42950961
  435      1      21.10884668       25.80106581        6.72032571
  436      1       8.43953283       24.93996483        9.40049268
  437      1      15.99095436       23.80979462        8.81627160
  438      1      12.98541908       25.41135289        1.10177784
  439      1      20.73333763       13.11105296       16.68122526
  440      1       3.83795989        7.92248182       17.14478209
  441      1      17.24923952       25.20313295        7.42051484
  442      1      17.26660950       15.78746161        8.73255578
  443      1      10.13187678        5.12844035        0.83625668
  444      1      15.32344423       14.92486223       11.95642769
  445      1      11.01668132        9.07712232       12.56423991
  446      1       4.37282379       22.31180567        3.82216024
  447      1       4.93530095        7.03652778        6.02797146
  448      1      24.87185168       18.98194552       24.82475814
  449      1       6.47067045       27.37153058        4.39074944
  450      1       9.41334932       27.38739961       17.73881775
  451      1      27.56940527       26.70619242        4.06473005
  452      1      19.65154952        9.39678282       27.57570522
  453      1       1.95187992       22.87941579        0.56047230
  454      1       5.93568489       10.83989796       19.49909183
  455      1       0.57613457       21.62862843        2.02271466
  456      1      17.33128522       11.94295731       17.34227858
  457      1      11.18933730       24.29094873       13.71659330
  458      1       4.61087109       15.23698862        0.68660049
  459      1      22.02602605        3.97803157       12.15249524
  460      1      20.13625103        5.55975607       15.36183923
  461      1      19.73688564       12.94509347        1.97509703
  462      1       4.38593875       11.45469862       15.75161376
  463      1       5.29078447       27.52435684       24.48288960
  464      1      13.21985134       15.10836954       13.17603195
  465      1      23.12781636       22.75864720       25.13752031
  466      1      17.09339286        9.28301872       11.96061500
  467      1      24.61429897       20.19929331        4.67941093
  468      1      21.87414629        2.61372506       22.67316565
  469      1       7.75714400       16.42171446        7.52232270
  470      1       5.34160875        6.86855775        3.70835701
  471      1      25.61539490       11.65731940       25.06353519
  472      1      22.87749475        1.65662325        4.84219680
  473      1      22.50429190       11.98195655       15.40902467
  474      1      27.57216205       21.92619188       22.98723936
  475      1      11.44063743       21.26892022       25.88727008
  476      1      15.71942647        2.25955646       20.24520542
  477      1       7.74507155       11.43701520       18.14182047
  478      1      22.76210952       12.30853106       27.24950091
  479      1      11.84411704        1.32990465        4.50606520
  480      1      12.20956356        4.62985638        8.34477269
  481      1      22.34883162       19.74648972        5.14533986
  482      1      14.56748719       23.00646875       15.51548921
  483      1       6.71040416       14.44097436       23.62515821
  484      1      17.87115952       19.17197943        1.65218903
  485      1      18.69608196       15.07942878        1.83789423
  486      1      24.65718757       25.00164465        6.02975464
  487      1      19.43650766       22.26855837        2.84397624
  488      1      16.11159575        4.84436857       11.64055213
  489      1       9.29842331       17.13912403       16.84107101
  490      1      12.21035899       15.79883819       15.25599455
  491      1      11.93779506       20.33019431       16.45886553
  492      1      27.21877587       15.74917501       13.01179894
  493      1       3.16120113       22.95637037       15.73474260
  494      1      19.10564827       26.13742052        2.09671052
  495      1      17.89365580       22.73315369       18.66390009
  496      1       0.04731537       16.93211661        8.46092751
  497      1      23.49574406       25.10332376       24.94274314
  498      1      20.18449624       27.10227407       24.64362256
  499      1      24.64488569       15.46012348       15.89798647
  500      1      18.81245592       13.37078441        6.32807482
  501      1       6.37911485       22.00659193        2.39592051
  502      1      18.12101156       13.95843759       23.51040773
  503      1       1.60642031       19.39819302       13.64811586
  504      1      22.36841345        0.36163587       15.25372155
  505      1      17.88795521        5.38737920       14.71419834
  506      1      16.05308145       10.04056150       17.99899453
  507      1      22.04164870        6.75137838        9.71946202
  508      1      12.89209095        9.46014344        2.65329209
  509      1      13.79877260       27.58776193       13.56354843
  510      1       3.01278844       15.59506284        4.17147344
  511      1       2.49954522       16.43036310       16.14697028
  512      1       8.67919155        8.09980687       23.82754805
  513      1       7.90780788       16.85020616       26.24200011
  514      1      17.87039703       26.58466890       22.13551831
  515      1      12.70559417        4.79849867        6.07247249
  516      1      13.19773245       23.76704733        4.65913648
  517      1       7.09844183       20.18335730       22.98819363
  518      1       1.36772444       10.16965809       12.53698733
  519      1       9.98322862        5.52244085       18.06733198
  520      1      18.62952222       25.42294309       25.39910544
  521      1      23.18768991        2.00590666        9.02495753
  522      1       3.95026232        5.51159711       10.17586760
  523      1       3.10549945       15.91872313       22.69636193
  524      1       4.10528041       12.23246148       13.52702299
  525      1      16.31251731       17.14868772       24.68041013
  526      1       2.52846807       26.57006051        0.09318588
  527      1      12.88853482       25.98501215       20.58862869
  528      1      20.82852946       18.38084268       14.38531257
  529      1       3.91616181       21.82816367       27.17231761
  530      1       4.65490549        3.31955946        6.17307373
  531      1      14.80497122        8.23532565       12.20958162
  532      1       7.31626862        7.76346046       18.15162714
  533      1       6.48960975        3.33423335        7.57606860
  534      1       4.88425637        8.18998088       24.38335258
  535      1      14.25972657        3.45843672       16.81391008
  536      1       3.25557771        3.68696280        0.50117970
  537      1      23.74667588        6.79285950        3.06058569
  538      1      18.95728954       21.17925646       17.08826001
  539      1      20.47827425       23.07401172       14.60965137
  540      1      23.73240235        3.71212901       19.32361810
  541      1       1.20760660       23.82454620       20.12996953
  542      1      12.91524941       22.99934319       23.58811591
  543      1      13.40684925       23.61164658       13.42037041
  544      1       2.62909588       25.65839748       20.00287308
  545      1       3.02126795        1.57826895        6.11648506
  546      1      24.70101830       11.68330379       22.85212765
  547      1       7.97371617       18.91679867       19.90594578
  548      1      10.90715043       19.29116657        9.94322080
  549      1       4.67900252       22.19375792       24.86859283
  550      1       3.37919336       12.61424178        6.72413585
  551      1      23.85174636        2.37553615       12.64059178
  552      1      17.64474598        6.53055447        2.44282765
  553      1      18.51882747        3.11031440       17.70735501
  554      1      17.57126280        1.83277776       25.18983159
  555      1       6.79051426        3.23457137       22.23992824
  556      1      19.01449508        1.66097886       27.28988418
  557      1      17.76064512        8.25518499        0.81578638
  558      1      23.13762139       23.24800659       19.28564991
  559      1      22.82608700       25.33675124        2.84953978
  560      1       0.13437128        7.39725218       20.11688093
  561      1       7.74581288        4.77955890        1.43725904
  562      1       0.67190585       23.72418061       12.63074362
  563      1      20.28990045       16.78422129        2.15096232
  564      1       7.55907758       11.51579599       12.05239815
  565      1      26.83747714       24.27477473        6.74145999
  566      1      26.71254062       13.06870470       19.75403939
  567      1       0.83951210        2.12473459        7.12613344
  568      1      17.36990122        3.31580013        7.17506282
  569      1      27.30811069       24.95268283       16.03058327
  570      1      20.90193192       22.01044906       25.61213811
  571      1      13.36438681       15.24904216        5.99920310
  572      1      17.07683904       20.48416438       13.58665058
  573      1      25.51392400        0.28299020       17.41957559
  574      1       2.62250921       26.97955736       22.10235811
  575      1       8.90506585       18.81149602       25.51435034
  576      1       6.27285207       24.42801182        2.38265759
  577      1      13.12501989        7.46657150       17.73716992
  578      1      14.60312205       19.59923447       21.89552590
  579      1      15.72719327        8.52420805       21.98303680
  580      1      27.14260393       21.58072143        9.70035682
  581      1      21.22241077       18.69068031       23.77079403
  582      1      23.28832573       23.80440914        4.53063433
  583      1       6.67388664       21.06807396       20.77224044
  584      1      24.42814799       15.95990465       10.11638458
  585      1      20.72007809        6.73418685       24.76534105
  586      1      14.63576275        2.03529548        9.75448787
  587      1      25.86281992        5.79533297       11.15131418
  588      1      13.56209851        9.79596551       15.15069139
  589      1      17.22424565        4.71952779       22.95392362
  590      1      21.40000113       20.16398142        7.26763720
  591      1      18.68332457       16.83427882       12.07902222
  592      1       4.89692985       14.39293310       12.99043272
  593      1      10.97910948       14.79392340        3.09736733
  594      1      20.91082295       20.34757600        3.24996423
  595      1      17.84958269        0.01332699        0.72920992
  596      1      25.38156834       26.82164182        4.65598416
  597      1       0.21501162        4.95438811       17.50178522
  598      1       7.41064485        4.35630432       14.10751141
  599      1       8.92368427        4.44608516       25.07345657
  600      1       7.47841019       14.21806802        3.00313250
  601      1      11.72536528       15.93207082        7.77519941
  602      1      12.05473276        1.89618232       23.65583190
  603      1      17.57454538        4.22188317       25.20615092
  604      1      13.72037827        6.29839345        9.19595826
  605      1       3.54957445       12.22777605       26.50248995
  606      1      17.58324972        1.65304834       12.36986034
  607      1      27.19525234       17.10921170       18.88088347
  608      1      27.64294884       26.65945234       25.06587866
  609      1      16.24516093        6.82598217       15.76025028
  610      1      25.86175928       26.41055818       21.70774769
  611      1       4.49537393       12.71581553       19.42013422
  612      1      19.50347475        9.15382265       16.39150403
  613      1      25.39347454       23.28850127       20.13428705
  614      1      11.52789741       26.57578273        4.78675637
  615      1      18.00205708       10.45502157        9.97385705
  616      1       2.07106799       19.45160530       25.12179343
  617      1      13.65927409       26.16552966       10.17865175
  618      1       9.01769131       20.83960531        7.35584493
  619      1       1.97303264       19.93739576        7.18426229
  620      1      10.74323749       19.86225460       22.19641511
  621      1       6.88651330       22.81334779       16.95607001
  622      1      11.95855280        9.58092148        7.20535657
  623      1       5.80213062        0.92487842       26.66861204
  624      1      16.85821064       15.92853581       13.36997753
  625      1      15.19704770       11.42868099        7.17082336
  626      1      22.63781374        3.92122282        7.78645621
  627      1       5.83613446        4.24989521        9.60446512
  628      1      15.99522851       16.63861729       20.25377770
  629      1      10.66247217       22.03004504       23.40334448
  630      1      16.13426072       17.73097813        2.25608849
  631      1      20.62830848       13.55889942       19.10351608
  632      1      24.38924017        6.39244176        0.73328526
  633      1       0.90339251       14.66054687       16.68099299
  634      1       1.29411833        2.83059078       24.01876666
  635      1      18.26134844       22.09711747       15.00012198
  636      1      16.92290116       26.46281573       26.65904153
  637      1       5.66627157       17.65956860       25.98613866
  638      1       9.07518366        8.85883333        0.12248314
  639      1      23.61106683       22.09057445        1.16968931
  640      1      27.52103965        3.91630656       25.57601266
  641      1      11.01677043        1.22326032        8.90914791
  642      1       9.09806377       15.11919129        4.45950535
  643      1       4.62595066       20.11162860       20.14831552
  644      1       1.36136259        2.68601912       11.15828549
  645      1      14.50851552       27.11842568       21.88410217
  646      1      19.15825756       13.66531092       25.65842383
  647      1      21.28742353       15.74881292       27.47774656
  648      1      12.30116415       15.22950789       24.89373424
  649      1      21.52303955       18.24639524       16.76532376
  650      1      20.14944616        6.49167800       19.02851762
  651      1      26.91100644        9.65742561       11.69486257
  652      1       5.22483061       14.02517367        9.27756638
  653      1      25.31188575       12.02277880       18.18778387
  654      1       8.06237253       20.90168349        3.62245388
  655      1       2.01377500       12.79342188        2.27073939
  656      1      11.84229323       13.08140574        5.96308035
  657      1       6.62117696       16.06338770        1.81464026
  658      1      26.20578732       20.35875653       26.29109183
  659      1       7.88435123       22.66203614       19.06587355
  660      1      16.28993388        7.66894992       26.67192645
  661      1      19.38555431       18.57222751        3.35345704
  662      1       0.92680373       16.24023209        0.73929705
  663      1       1.16551411       25.34726713       14.21207709
  664      1      17.06743548        9.98572912        2.37281524
  665      1      15.00140811       14.53343014       17.61085236
  666      1      11.94074553       12.68310391        3.60746269
  667      1      13.06481041       19.82476142       13.01081263
  668      1      21.19108040        9.00904709       22.02117013
  669      1      20.72809424        4.99309307        8.82760263
  670      1      24.10652237        7.53263751       19.18884871
  671      1       8.48160569       11.72460047        6.84004422
  672      1       7.56713427       13.62434313       15.29223778
  673      1      16.39739140       27.33600480        7.46496263
  674      1       1.54833688       12.82293174       10.24508444
  675      1      25.68166915       11.54562797       10.92427305
  676      1       8.23063899        4.81985107        7.05853158
  677      1      20.38446977        4.67235688       17.56296617
  678      1      10.42315275       18.63209097        0.96023042
  679      1       1.94014120       22.75991801       22.07735019
  680      1       3.38993254        2.44705845       19.75454419
  681      1      12.64299522        8.72015664        5.02339645
  682      1      19.94616868        1.93146119       21.60128570
  683      1      15.33211130       23.88099802        3.75862378
  684      1      23.31213704        9.73372904       15.89604215
  685      1       2.29683130        8.82537807        3.19230785
  686      1      22.42485784       10.17440342        2.56230737
  687      1       4.22871661       12.30819901       24.29409924
  688      1      20.72214633       26.29299183       12.37092715
  689      1       5.28698118        8.60058440       18.87059544
  690      1      16.93019082       15.38728218       18.53140097
  691      1      20.93498592       10.24381146        7.22403381
  692      1      15.64239782        5.37221769       26.21106198
  693      1      18.96266373       17.81762996        5.74847138
  694      1       1.90779976       25.50392210       25.69524508
  695      1      21.36069740        6.56604583        2.11149040
  696      1      23.55121738        8.14401657       27.08394141
  697      1      19.03141174        0.72262924        5.12078912
  698      1      20.94932513       11.78295186        3.68622586
  699      1      23.54447103        8.27759281       21.60762753
  700      1      21.15952599       27.62192428        5.14002705
  701      1      25.04130586        8.74581878        8.73281904
  702      1      10.73126704       23.10666313       21.05966199
  703      1      10.51400478        6.74363734       12.07288470
  704      1      22.30430369       21.65032912       15.03565591
  705      1      19.24987184       15.77916405       22.11387219
  706      1       0.23884529        3.12082744        3.58384284
  707      1      10.79050245       26.76084019       21.40418576
  708      1      15.11555275       19.34527595       14.34800056
  709      1      16.43257935       27.59845982       20.60153890
  710      1      23.35975245        4.41453028       25.60206570
  711      1      14.50874972       17.40506016        0.44957537
  712      1       8.71518960        0.57011926       24.12158784
  713      1       5.45385939       17.70245456       14.60051126
  714      1       2.45417380        6.48136418       19.91383091
  715      1      16.30044556       20.10935368        9.82312191
  716      1      10.17690636       19.04818587        6.27211902
  717      1       1.34210129       27.52281107       13.40085948
  718      1      11.33031836       10.73909622       25.47724057
  719      1      25.41293471       19.42076419       16.07177082
  720      1       1.99684377       20.00628963       18.04082020
  721      1      19.14729146        2.66090941        3.77250136
  722      1       3.72239583       10.09047238       27.34965056
  723      1      24.03114887        4.82822092        4.28265211
  724      1      12.24833657       11.90004841       27.41810438
  725      1      10.09647665       13.37559872       20.26983352
  726      1      23.31488714        8.84877065        4.27701537
  727      1      13.70704846        1.97422576        5.95434831
  728      1      23.41228475        7.30001079        7.90714363
  729      1       0.11723977       16.04410583       24.36772662
  730      1      26.72061396        2.70136473        5.62703457
  731      1       0.41497006       21.20752728       25.14738103
  732      1      26.30941318        4.38890997       19.29349762
  733      1       7.24698848       17.93129625       17.86124331
  734      1       1.46334928       11.55637127        6.00761420
  735      1      19.21781209        2.13166099       14.19938811
  736      1       7.72771418        1.85200404       20.40765361
  737      1      20.92114136       14.34475095        6.47146114
  738      1      12.80090095       11.69379745        7.59173753
  739      1      13.78391880       18.74375520        7.79541028
  740      1      23.16053595       14.50861082        2.87900985
  741      1      19.15482678       11.47406448       15.96296841
  742      1       8.24813110       13.61568354       18.83284669
  743      1      22.98954480        6.72934583       25.21708868
  744      1       7.06367282       21.81052056       24.67426981
  745      1       3.34304459       21.33725307       10.65388703
  746      1       0.98247365        0.48851205       23.50766390
  747      1       6.05404539        8.74333678        2.50551432
  748      1       5.71202783       17.29037572       10.79914667
  749      1      10.00245752       26.24090421        6.53961045
  750      1      18.47240846       19.42672587        9.40583290
  751      1       9.23801072        1.76302914        0.06937694
  752      1      22.66668132        2.61922115       15.74073667
  753      1       3.77635340       20.28376929       23.85627789
  754      1      15.74355429        3.41337679        5.40926721
  755      1       7.11099427       18.88820866        4.40685413
  756      1      23.10256397       17.02018603       27.12365014
  757      1       3.78304488       20.22595443       12.72127083
  758      1      25.61591476        9.62085061       26.45820550
  759      1       8.79914503        8.95092399        9.39625945
  760      1       0.09835729       17.97620630       12.27774770
  761      1       3.15325154       17.18826562       13.98031456
  762      1      11.03821883       19.66433616       14.39705923
  763      1       7.44359752        1.68080129        3.65207229
  764      1       2.58477443       15.03677400        1.96473703
  765      1       3.72580236       17.75541503        4.13479027
  766      1      19.16023628       18.67608876       19.62321307
  767      1      14.58821298       18.09757296       25.89168589
  768      1      18.60810158       22.99995630       20.88108608
  769      1      17.06738953       16.53731299        6.54575205
  770      1      20.74077052        8.79721926       18.39103928
  771      1      24.40851973       13.14110525       16.26307800
  772      1       8.69997988       23.40104480       24.15718140
  773      1      14.02232728        1.91963144       18.62531131
  774      1      20.16967179        2.68727965        1.54242769
  775      1      10.46423515        7.20061742        9.74123390
  776      1      20.64203797        5.46666316       21.06526615
  777      1      15.59723541        2.88869394       12.89308529
  778      1      13.26556154       11.82983319       11.27543553
  779      1      19.42442588        9.08744259        8.73932798
  780      1       7.41933538       26.91726513       16.24430213
  781      1       4.79493008        7.67754944       10.01752211
  782      1      24.55376449       26.81350642        2.51666811
  783      1       3.64629731        5.99361750        0.48391932
  784      1       3.73505279        5.13169605       22.98398329
  785      1      13.66542860       23.57990945       17.65201170
  786      1       7.19441888        6.91877480        6.79098198
  787      1       9.63891187       13.64012434        6.22982791
  788      1       4.97756802        1.94169634       23.26048235
  789      1      27.26577154        2.13815384       20.27702561
  790      1      22.07853615       15.38410083       10.03896558
  791      1      21.49884479       13.49467894        8.66595172
  792      1       6.50419706       12.01919139       23.63272029
  793      1      23.94623747       12.20311709        6.05022992
  794      1       6.13820944       26.18093192       19.21833342
  795      1      27.48560037       25.05143755        2.43640372
  796      1      25.01220319       15.17287884       12.29105142
  797      1      25.72506955       13.64646556       21.93471457
  798      1      15.14783688       25.44903642        2.13079294
  799      1       4.49919580       14.24673874        5.43127934
  800      1      10.14098908        6.25071007       24.04657169
  801      1      10.69713929        7.54557167        4.35302481
  802      1      26.46871904        6.48351350       16.40205917
  803      1      20.08259226       20.81592627       23.69327538
  804      1       9.50026792       22.93787264       12.91350162
  805      1      21.17344193       23.63438515        5.73268014
  806      1       1.82515779        9.22786419       26.48071739
  807      1      10.74747835        3.40630079       17.70268300
  808      1      21.07784477        3.67755249       14.28893602
  809      1      21.00325593       20.06459999       26.95676258
  810      1      27.56368043        6.27062263        4.94106607
  811      1       8.53439986       17.03229188       21.51869582
  812      1      15.87078694        5.99205347        8.19589813
  813      1      18.41831345       11.50174413       26.57764572
  814      1       8.32858707       14.70438133       25.28018274
  815      1       7.61391922       24.68479480       22.52754831
  816      1      26.43783161        7.86570999       24.82913063
  817      1      14.60063728       11.37356021       27.62969565
  818      1      11.65632414        3.04043347       12.15902825
  819      1      10.86671334       12.37930710       14.47180962
  820      1       1.66768178       18.20328224       19.56435041
  821      1      13.79713722       21.08884529        7.67666314
  822      1       0.76758968       11.32460027       19.85067643
  823      1       0.74368419        3.61669315        9.00551249
  824      1      10.22070667       14.74662459        0.90009556
  825      1      27.34744880       23.86785921        8.96723447
  826      1       6.17067620        5.21517367       15.94690120
  827      1       0.87753097        0.90283337        2.97544724
  828      1       5.91021480        5.63110129       22.08476074
  829      1       8.82178650        9.61165406       11.75270449
  830      1      26.63270297       10.91386422        3.45307111
  831      1      19.56595279       11.27007306        5.51627729
  832      1       2.20339144        5.39079969        8.52257724
  833      1      15.47235742        0.04300324       15.25378384
  834      1       4.15477495        0.92356656       21.36245743
  835      1      25.86256766       12.26461461        1.69242873
  836      1       8.37553176       24.64024804        5.70821014
  837      1       2.67941336        4.43474850       21.00243110
  838      1       8.04831807       24.59114066       15.91028335
  839      1      22.03877184       26.69588275       19.76565782
  840      1      22.25444972       23.17282649       21.46537027
  841      1      10.32756179       15.36818449       21.62272272
  842      1       5.23304557       18.82898298        0.41150085
  843      1      12.29388331       10.17974051       20.47982826
  844      1      24.94744664       15.64757335       26.61070651
  845      1      13.29751815       24.81680818       24.92745685
  846      1       2.21308368        0.50173116       11.20402439
  847      1      24.31048968       15.48023159       22.77033811
  848      1       5.88948416       23.19700723       12.80833149
  849      1      19.14429551        7.94907683       12.46132014
  850      1      17.49744405       21.47512664        1.79707514
  851      1      15.64204021        2.42980376       15.20835726
  852      1      16.95939454       10.62493599       24.66135983
  853      1      15.13084662       13.36872375        5.69389738
  854      1      11.67406628        2.34849893       19.61882134
  855      1      11.46517778       22.55810575       17.29188591
  856      1       1.91292286        8.46489666       14.13179669
  857      1      23.23036066        0.75147287       22.85020882
  858      1       6.87118597       21.04222110       15.42523055
  859      1       9.03644999        4.35368107        4.98336497
  860      1      10.47540669       24.36630901       15.97904361
  861      1       3.34049448        5.23767174        6.35279441
  862      1      14.27803361        1.49929485       23.21186307
  863      1      20.24739537       10.19237123       20.24087634
  864      1      18.54551184       12.38391607       13.78448252
  865      1      27.23639981       26.32944793       17.89413664
  866      1       6.80358814        8.19237815        0.31782327
  867      1      11.06479582        5.30771749        4.48753647
  868      1      22.77402925        0.29073625       27.21204891
  869      1      23.61808797       17.07456115       17.27506971
  870      1      21.00404012        4.69785139        0.57854722
  871      1       5.25287827        8.59700196       12.11029562
  872      1      25.04823150       10.04245258       21.28373497
  873      1      13.94106511       16.40343232       16.69715821
  874      1       3.40242507       17.02628632       10.20238048
  875      1       4.41618345       15.23819840       16.73968590
  876      1      21.80157988       13.81473994        1.02459558
  877      1       2.96985000        0.83238426       14.81449419
  878      1       3.13752274        6.59611942        2.79963596
  879      1      26.09786724       27.62370452        9.29612200
  880      1       6.78674348       11.31323951       15.97397699
  881      1      15.06668889       18.49955520        4.22887555
  882      1      22.98716977        9.25823221       18.15047450
  883      1      13.80177495        5.91929753        1.91191838
  884      1       5.25318038       26.27685516       10.84170561
  885      1       2.75085690        7.04731239       24.06682385
  886      1       0.36408478       27.63679605        7.89646174
  887      1       1.92371686       24.52680148        9.18021333
  888      1      18.80624058       17.18770311        9.76845102
  889      1      22.46106838       16.69574091        3.04691427
  890      1       1.50414709       15.51780526       26.28305964
  891      1      12.30651874       16.60265615       21.03952185
  892      1      13.62362175       21.85841661       11.82213568
  893      1      25.91583886       25.75142908        0.60485553
  894      1      12.19002544       27.21985830       27.40541756
  895      1       2.84359106       13.81621284        8.64941631
  896      1      19.45957182       26.23688917       14.52118467
  897      1       2.96410915        8.83196339        9.05706488
  898      1      22.86423082        4.36997050       21.43160077
  899      1      25.17184386       26.55883960       13.36779938
  900      1      17.56959212        7.16808719       22.85691727
  901      1      19.22602717       22.81611143       11.10808627
  902      1      17.09938005       25.94319621       14.48673671
  903      1      26.69677439        5.99060838        0.90998644
  904      1      17.78010289       14.35667375       14.79556006
  905      1      14.33407732        8.99036573       27.00956957
  906      1      17.13233022       26.90973558       18.36283516
  907      1      23.95967458       27.57921081       20.78029104
  908      1       0.62865605        2.78750041       16.73956119
  909      1      11.31835568       26.47925935       16.64918812
  910      1       9.61913698       26.12216146        2.09905140
  911      1      26.76063392        7.82429546       10.13634567
  912      1       6.02681382        2.47465744       10.93571081
  913      1      20.40580764        7.80227881       14.63767541
  914      1      22.09630960       26.44176836       23.57031405
  915      1       6.69950547       11.29920104        5.37076243
  916      1      24.60717169       22.17989120        3.32868277
  917      1      22.21529218       20.20673078        1.30607512
  918      1      26.53224707       10.07045178       17.35747472
  919      1       5.36985293        7.34293139       15.49162165
  920      1      11.32561924       12.10737484       23.54886872
  921      1       8.92995889       20.86609715       13.97549684
  922      1      13.58717587        5.24258673       22.61789251
  923      1      17.62544231        8.41123996       24.87827682
  924      1      17.28497299       24.55731986        5.13958307
  925      1      26.11033189       14.99607389        8.67013755
  926      1       5.73717247       18.79995936       12.56634181
  927      1      11.66174942       27.64207961       14.48129004
  928      1      16.43426370       12.03529532        9.10088242
  929      1      13.67326789        1.29941964       26.74020881
  930      1      17.76068875       19.26976893       17.72608325
  931      1      19.62232405        1.11833158        9.31248846
  932      1       3.52383849       13.08814673       17.26783678
  933      1      20.00993956        4.46465850        4.99776067
  934      1       2.21945124       26.89383631        9.10417576
  935      1      20.97661557       15.69233010       20.21886331
  936      1      15.44934378        7.33891157        3.06725743
  937      1      14.81450796       10.79554692        2.27811806
  938      1      22.40576588       11.94980139       12.95625473
  939      1      14.72940232       11.77256230       14.47659636
  940      1       8.14288259       22.22302367        5.59557499
  941      1      15.79055478       17.20568472       15.21160432
  942      1       5.71152235       21.99268326        5.78192083
  943      1      12.63981742        7.78608887       19.98355712
  944      1      12.24982834        2.19419972        2.34373041
  945      1      26.09396582        4.24275567        9.44388885
  946      1      15.45993684        0.53245700       25.31768875
  947      1      12.48864413        8.31327984        9.18626793
  948      1      15.55603554       22.29770877       18.76485050
  949      1      21.42917960        3.18556312       24.94361601
  950      1      25.27310265       20.71745355        8.56122770
  951      1      10.40651149       21.56827546        9.27633549
  952      1       8.69519063        9.49634118       21.82654124
  953      1      17.99570323        7.51178914        7.43362781
  954      1       9.96609500        2.74524452       10.34003493
  955      1      23.68255220        8.01830473       12.74515525
  956      1      20.98601073       15.06693416       25.25467195
  957      1      13.47312120       21.71923878       27.01979603
  958      1      13.62671758       24.45649192        8.59875142
  959      1      15.16834661       15.99571724        9.86286015
  960      1       9.61688547       13.50119011        9.84096233
  961      1      21.04034694       17.12339923        8.91783021
  962      1      26.92333322        2.37227403       12.22084597
  963      1       6.09848668       27.12473551        6.82906521
  964      1       8.64876235       14.67395434       11.69543600
  965      1       8.01466797       20.89299553       26.58582659
  966      1       7.39105101        8.90775575       15.45992101
  967      1      17.63866910       12.01558035        1.03525903
  968      1       4.53637627        7.48643671       20.75112425
  969      1      11.77744436       13.19511322       18.57491977
  970      1      26.35169619       21.23729691       19.55423348
  971      1       0.33354981        8.05934780        6.47631610
  972      1      18.43003763       11.62729422       23.05222067
  973      1       4.61685644       22.93604128       17.64357663
  974      1      11.24255456       10.03567408       14.68308387
  975      1      25.13285834        1.46901482       24.04750017
  976      1      20.85359091       23.90813923       12.42213728
  977      1      25.91320484       12.29097828       14.71758581
  978      1      17.17000781       27.25136680       11.17230604
  979      1       0.95683323        0.68283249        0.59192937
  980      1      14.18883019       11.58305222       20.76656295
  981      1      23.21686114       25.91127176        7.69305940
  982      1      15.17870568        3.46311887       22.26649785
  983      1      24.20483840       13.45491850       25.85608236
  984      1      12.86477606       17.40200572       18.73123654
  985      1      25.82356007        4.85453896        5.75178816
  986      1      14.85951744        5.76502611       17.38179056
  987      1      11.55475508       19.91749234        4.59374301
  988      1       3.57355539        3.26916477        2.89826594
  989      1       8.61059327       17.36769360        5.47913707
  990      1      25.78122669       13.59838975        6.52404593
  991      1       3.96615710       23.66904968       23.14793234
  992      1      17.69726680       16.94285167       16.82107607
  993      1      13.30303407       25.55067841        6.27210320
  994      1      22.32912991       13.33479207        4.76798614
  995      1      24.35624194       18.60130873       13.93196661
  996      1      19.24803878       25.24271465       20.89290303
  997      1      12.24785995        5.32033379       12.54601990
  998      1      14.32672603        2.23352159        1.06999352
  999      1      17.98844148        9.72777881        4.67976485
