run_id:  1004
total_energy:   -3030.3148814359647
  1000 atoms
  1 atom types
  0.0   27.664  xlo xhi
  0.0   27.664  ylo yhi
  0.0   27.664  zlo zhi

 Atoms

    0      1       0.02771465       18.74741164        6.77562373
    1      1      14.64868949       18.63274346       19.60610594
    2      1      19.86074667       15.25054343       15.89668658
    3      1      17.39900406        8.36605373       17.17072857
    4      1      12.87614405       12.83262258       13.34912097
    5      1       8.83506208       16.63848107        0.76008677
    6      1      13.86875459       23.98559279       26.97074266
    7      1      24.74303705       22.88099970       12.52670598
    8      1       0.65351347       26.00788104        6.13133349
    9      1      26.76013214       27.53238635       27.08126701
   10      1      26.26700626       24.02524679       26.52392346
   11      1      24.72771646       12.83502337       12.65972998
   12      1      12.02015566       16.25266136       11.53812361
   13      1       8.77956140        2.83362327       23.38893818
   14      1      22.30446311       12.21783489       22.83659598
   15      1      16.04032371       21.61653115        8.01236409
   16      1      22.73005885       17.42811475        5.22051301
   17      1       5.63042465        9.37152971       26.32355121
   18      1      24.99982495       10.29308908        5.08605051
   19      1       8.64045275       12.91580779        1.26787869
   20      1      25.63985665       18.08875664        1.78230795
   21      1       2.97482069       23.63649736        7.21318435
   22      1       4.99972118        2.30329431       17.96063529
   23      1      10.40898451       14.34505466       23.87170175
   24      1       0.40644740       14.89789851       19.06639129
   25      1      27.41553494        9.46835618       21.20026259
   26      1      12.92505632       18.21176271        3.60044557
   27      1      22.34574711       19.10916433        9.30551312
   28      1      17.72889712        3.25702772       15.57220374
   29      1      27.30054276       22.37393581        5.61433609
   30      1       4.85938735       21.76432476       14.24703732
   31      1      16.68085247       18.84073292       22.84037065
   32      1      16.95893930        2.94267629        3.35338502
   33      1       9.79741013       16.64039068       12.28380125
   34      1       8.23013320        6.09453146       12.53408229
   35      1      15.74797715       27.20136352        3.58170445
   36      1      10.63988453        6.58596000       20.11990281
   37      1       7.07539293       26.96521560       23.02610812
   38      1      21.88580343        2.74251014       18.08784812
   39      1      10.73140456        0.54248430        1.29482852
   40      1      10.81885046        7.14812273        0.00000322
   41      1      10.63665197       25.35292486        8.61573258
   42      1       4.48294963        0.67250426       11.48890587
   43      1       8.88671439       18.72074022       23.21984297
   44      1       1.34887052       13.14795715       26.42380051
   45      1      23.72807250       11.00140878       19.49984506
   46      1      14.37348723        7.68082498       14.48635578
   47      1       6.62216912        4.99065326       25.70739190
   48      1      14.98603083       20.38523883       25.89811645
   49      1       9.77373395        4.85489018        8.96474581
   50      1       1.38853114       18.50021871        1.07594484
   51      1       7.37578945        2.40837705        1.29800968
   52      1      24.55083836       19.92306400       22.66732133
   53      1       0.18910349       21.46460423       13.45408936
   54      1       6.87499430       21.89145195       11.02812809
   55      1       4.78051206       24.46416251       19.60243145
   56      1       1.88620517       18.81946125        3.35840737
   57      1       5.75038118       11.75252511        9.30229757
   58      1      27.17476013       11.73243821        7.36933257
   59      1      23.34984342        4.41097303        0.20965158
   60      1       2.39449410        3.03936350       15.25057924
   61      1      18.79643229        0.72200739       23.30402280
   62      1       8.11581392       11.70831564        9.27653231
   63      1       5.46186350       27.56080628       17.38018289
   64      1      20.46742358       21.77844442       21.54836508
   65      1       7.08183274        5.12798423        3.62343836
   66      1      15.97283103       13.24727247       15.98683261
   67      1      24.44541729        7.21475195       23.54853093
   68      1       0.18939456       12.27012383       24.61325512
   69      1       7.17507285        2.99098309       18.44213959
   70      1      10.39186544       17.37564345       14.61448588
   71      1      13.74636674        9.71741535       17.37249079
   72      1      13.32317632       21.11832257        1.55128275
   73      1      24.86753968        3.51530561       14.77411814
   74      1      26.35726215        1.82305672       15.78629085
   75      1       2.66146855       10.67625078       10.63993915
   76      1       2.58511184       23.54928724       11.19240346
   77      1       7.73402123       19.95358918       12.12136969
   78      1       3.85566903       16.83703700        7.79592320
   79      1      23.72773083       26.56970503       16.61185293
   80      1       6.99180780        7.54207864        9.03719537
   81      1      18.82094642        4.00300930       21.37026134
   82      1      11.04282978       18.94988627       26.28053978
   83      1      14.76227146       27.42877233        5.79673638
   84      1       0.82267357       21.94400070       18.59529861
   85      1       5.65978195       17.96406198        2.76804836
   86      1      26.89984496       25.12050940       19.93156285
   87      1       9.60177067       14.97800418        8.01245985
   88      1      25.29256374        3.77971255       24.47722677
   89      1      24.21914888        5.79702280       15.85655812
   90      1      11.78003268        4.51255204        2.42953847
   91      1       0.56229128       12.57054216       15.64141957
   92      1      20.00629546        0.46413356       15.61683736
   93      1      16.11181285       10.25864254       20.35975539
   94      1      22.83119328       14.21351413       24.05972572
   95      1      17.74585141       20.82470890       23.70005350
   96      1       9.81504701       19.62361765       19.98041548
   97      1      12.98109012        9.48592042       11.25887017
   98      1      25.51746448       10.07778534       15.27347279
   99      1      27.53090358        6.21632740       26.30091876
  100      1      22.75549650       11.61155130        8.03594500
  101      1      15.03029162       26.02762804       23.97960494
  102      1       8.99543798       14.67211401       16.87062959
  103      1      18.94054586       22.90660584        5.01179539
  104      1      17.90082586       26.51640473        4.08660145
  105      1       2.91874154       25.45150881        5.79782866
  106      1       9.69764092       10.00256534       18.14904404
  107      1      11.20976738        5.34948317       22.13053121
  108      1      23.78786882        1.42783831        2.60160517
  109      1      16.05211947       24.52191870       27.63858403
  110      1      13.86431976       13.63652495       19.50426423
  111      1       1.78420186       15.69694041        7.49432810
  112      1      11.10772510        6.92653039       16.52186172
  113      1      12.87228869        7.75942504        0.99016169
  114      1      23.73067501       24.40514641        9.52327574
  115      1      17.11155647       14.59739057        5.24004480
  116      1      19.85558577        4.87172187       25.93719026
  117      1       8.67337978        2.42443462       14.70108725
  118      1      18.92874560       19.06102908       12.99442130
  119      1       8.90099578        2.15160898       17.04445360
  120      1      12.55984772        5.90899952       14.80709290
  121      1      18.13983554       15.15904617       27.07574247
  122      1      26.94437686       14.24949834        4.60401682
  123      1       5.92087256       19.22873817       16.45965495
  124      1      14.48095466        6.79322513       21.05117194
  125      1       2.63246244       12.31385369       20.89065178
  126      1      19.64515511        6.30821620        3.74126635
  127      1      11.12691266       13.92774253       16.32120873
  128      1      20.91676844       16.67620616        6.56281043
  129      1      14.91619718       22.22374598       20.92708748
  130      1       5.04718951       10.99976276        7.09509112
  131      1      14.90268628       17.26026636        6.21718995
  132      1      25.06648412       25.13119371       15.30639074
  133      1      16.85457008       22.74595163       22.46742165
  134      1       5.22115106       23.19057913        7.66175560
  135      1       6.05915507       20.97394756        0.37307850
  136      1       9.51271997        2.02664178        4.95245039
  137      1       3.01421257       19.44094201       27.33354636
  138      1       6.29543835       15.01674435       11.20286732
  139      1      12.94463625       15.87095297        3.73437324
  140      1       9.62025067       24.48644748       26.15672870
  141      1      26.83829171        0.62090528       13.79087608
  142      1       9.16292847        9.67767206       25.61531348
  143      1       3.87790112        9.00453524        6.88123656
  144      1      16.96612565       23.50736954       11.04357653
  145      1      21.61955314        8.59815913        1.02520184
  146      1       1.82964249       21.86654267        5.97515071
  147      1      11.45339091       26.92742561       10.19402329
  148      1      13.76183473        1.87896191       11.96722052
  149      1       7.35817962        1.18774541        7.88063726
  150      1       0.38803998       12.13456760        0.61192087
  151      1       0.08455543        9.13877365        2.41169402
  152      1      15.46522025       20.63941859        4.74511899
  153      1       7.79892739       25.62447062        3.64331633
  154      1      14.08490971       14.38710880       23.39357531
  155      1      24.79983683       17.63515664       19.27615959
  156      1       2.08327967       24.89359194        1.71931787
  157      1       8.73106071        8.29820812        5.45225670
  158      1       1.27742349       14.17475690       12.24878499
  159      1       2.11550027        6.88431895       26.37952759
  160      1       4.46543664       20.56329873       17.98046947
  161      1       5.49739280       16.23142688       18.45517414
  162      1       5.05822719        1.14954834       13.76308289
  163      1      27.44969643        7.07597526       14.33775242
  164      1      12.84233117       15.11655382        9.58865030
  165      1      19.43882388       23.58152297       26.69700033
  166      1       5.84489300       15.24355355       14.88754857
  167      1      10.91739209       18.73671165       18.00215425
  168      1      14.68839477       18.31690263        9.86625588
  169      1      26.60134747        7.23094172        3.02600094
  170      1      11.52000634       24.53585318        2.77016693
  171      1      20.63157779       15.35749234       12.07502869
  172      1       7.38627029       17.92444841        9.25983248
  173      1       1.75221511       14.45113692       21.29585495
  174      1      16.31521306        9.24527033        6.32783423
  175      1       2.24813769       21.11840793        3.71728061
  176      1      18.09321272       13.57640686        8.56731375
  177      1      25.78144422       23.29667360       22.58996713
  178      1      11.55549631       18.20065913        7.92564398
  179      1      25.55704439       18.06458813        4.06443423
  180      1       8.50838612       25.32354929       18.91388539
  181      1      22.66502547       21.00877120       18.74510226
  182      1      15.41333913       21.76663525        2.74856774
  183      1      21.13846519       26.87219379        2.92972597
  184      1      24.98712686        1.46125418       19.38749662
  185      1      21.91062682        8.33512747        6.16623650
  186      1       0.85104949       23.34312412       26.25584470
  187      1      12.56612719       18.41066268       22.58641463
  188      1      17.45898588       22.59406070       27.39107111
  189      1      14.92321694        5.57312181        6.07650045
  190      1      14.21467953       25.62535606       12.36047636
  191      1      10.81749795        3.08765618       22.00476840
  192      1      25.76987159       25.24930314       24.06696225
  193      1      21.81475605        0.97939987        1.60760174
  194      1      10.27238920        3.55027927       26.73158232
  195      1      18.04915152       24.75560936       17.50924224
  196      1      21.32915254       20.65399712       16.93879802
  197      1      16.47405780       25.44003428       12.33284372
  198      1       3.43134437       26.88115568       16.43022494
  199      1       1.21872548       18.07658700       10.22174007
  200      1       3.97465411       15.91615871       26.21969960
  201      1      16.03100858        5.79953823       19.40947718
  202      1      21.96789737       20.54541916       11.23089127
  203      1       3.75989441       24.85259395        3.48570579
  204      1      18.29803357        5.71489680       12.34224291
  205      1       9.15123961       10.57445624        1.87672440
  206      1      26.80855055        5.49868448       21.30008351
  207      1      26.27006046        7.91587446       18.31474996
  208      1      26.88021283        4.87399989       13.20772868
  209      1      12.94651034        8.98625825       25.11749329
  210      1       4.69785866        9.26264056       22.35916361
  211      1      24.80788366       22.19172311       26.74575629
  212      1       0.17471830       17.85492579        4.70156167
  213      1      23.19897397       16.68904847       20.94777851
  214      1      13.15609947       25.96945091       18.10397443
  215      1      14.14015654       15.30201237       21.18287744
  216      1      26.25819592       15.95904707        0.99261122
  217      1       4.87273642        3.18353056       26.40287121
  218      1       3.80530232       18.62597725        6.35472953
  219      1      20.48651647       10.71543286       23.79209817
  220      1       9.90899291       22.35993181       27.29906873
  221      1      11.38863700       26.01096935       25.47983843
  222      1       1.73895667       12.30179074       13.60641793
  223      1       9.79435614        8.86836389       16.11465280
  224      1      17.30610276        3.80325456       19.58139650
  225      1      16.56503182       11.42076645       12.94876209
  226      1      25.53732789       14.38747936        2.60853878
  227      1       6.14900638        5.96443529        0.12727684
  228      1      13.65894909       12.07112643       23.00075258
  229      1      26.79297712       20.18404040       21.61116466
  230      1       7.62622013        5.62200245       10.25456377
  231      1      22.43397786       19.84794560       13.51725992
  232      1       4.37602273       12.14569575        2.34741132
  233      1       1.22384603       19.02124460       21.62563495
  234      1      21.37427861       16.12328084       14.11709334
  235      1       1.83348843       27.02849411       18.22178350
  236      1      17.05620972       24.92489522       23.59696586
  237      1      20.07262045       24.01660240        1.27701316
  238      1      14.22261605        6.12484032       11.43324216
  239      1      22.26297812       25.19875287       17.92652129
  240      1      14.67584587        9.96904479       23.68762783
  241      1      19.53094461        7.84747620        5.41359549
  242      1       5.41208103       18.65434716       23.77575840
  243      1      24.85684593        2.73860064        0.89726693
  244      1      12.06941159       12.86183328        9.59877985
  245      1       6.88342513       24.96379703        7.49024944
  246      1      19.01104941        5.08229053        7.13516870
  247      1      12.17797813        3.68557213       15.81926604
  248      1      22.53185657        9.82702906       11.63290794
  249      1       1.48110531       18.86767966       16.15049042
  250      1      16.08436457       14.16299833       26.59519949
  251      1       3.00497982        1.14719869        3.76274692
  252      1       5.16099519       13.08421053        0.27678622
  253      1       5.74862279       23.56602220       21.61358379
  254      1      11.84421199        6.84589331       25.48125482
  255      1       0.98416457       15.74714749        5.23678954
  256      1      24.27388775        0.28452754        7.88182655
  257      1      24.64605156        5.17436222        7.77748237
  258      1      15.48863656       27.59080415        9.56581522
  259      1      23.38541736       18.14690494        1.43047682
  260      1      21.18656095       19.96425582       20.30335227
  261      1      25.54722679       16.69701684       24.54355931
  262      1      24.91307719        1.25775739       26.63882909
  263      1      19.95719872       16.89072155       24.07473171
  264      1      12.84324130       18.75552604        1.42510166
  265      1      17.50263200       21.22086013        6.11696400
  266      1       7.51336758       26.67201082       10.67068700
  267      1       9.32373152       25.02785187       21.08155380
  268      1       6.95484827       19.92739895        8.20806207
  269      1       5.41541132       21.49047006        9.31583924
  270      1      16.38125888        3.67714326        9.43112284
  271      1       4.90234178       10.92423105       11.64215021
  272      1      21.79311298       12.00997225       20.42512572
  273      1      15.98582623       21.50098657       11.69071031
  274      1       0.00817451        9.81937639        0.13524659
  275      1      22.26282871        3.79079667        5.48948573
  276      1      17.81229483        7.27557026       19.17629255
  277      1       4.89134676       17.09677710       21.99959965
  278      1       8.90655073       22.90582418       10.48217843
  279      1      20.25309392       24.80107744       16.38229014
  280      1       9.62375430        9.65526715        7.13795898
  281      1      26.78167871        0.82333524       22.31783672
  282      1       1.99785220        4.97160007        4.26813299
  283      1      20.92162822        1.13107685       26.02349757
  284      1       2.61141229        5.83448623       17.64584056
  285      1      22.79732632        7.69940818       14.83914640
  286      1      15.51169258       12.62682165       11.21277098
  287      1       4.36787227       14.65405042       24.29023092
  288      1       1.43509590       10.27589627       24.32150540
  289      1      21.44255815       25.37017768       21.60594692
  290      1      10.39385927       11.21561816       21.57599787
  291      1       4.09821720        4.08866281       16.60810070
  292      1       3.03569287       20.57925268       21.67878495
  293      1      23.46186787       25.70398654       27.18726138
  294      1      20.69822220        1.01847476       19.44322184
  295      1       0.11013116       14.06718247       23.02252188
  296      1      17.86094219       17.57844286       21.24525613
  297      1      14.29036005       15.03515409        0.24767953
  298      1       0.54490798        8.42381855       23.32682476
  299      1       4.78602301       27.08233506        0.58029949
  300      1      19.40185165       25.40399840        8.36012420
  301      1      14.64934755       14.67854885        2.49952073
  302      1       7.23477681       11.02383633       25.66369953
  303      1      17.25058714        4.38048986        1.57269061
  304      1      19.96776026        7.16372276       22.62894369
  305      1      16.78156586       23.91502086       15.60745565
  306      1       4.07748887        9.90036111        2.04628291
  307      1       1.54092570       20.30431935        9.49596864
  308      1       9.47856631        0.84882205        7.03494015
  309      1      24.92257201        1.07961198        5.81045175
  310      1      20.14532530       16.97533596       18.19263124
  311      1       0.96335362        2.98938627       27.62065954
  312      1       3.10031835       10.95092868       22.78877662
  313      1      23.82258636       22.17286194       22.98710357
  314      1       1.39358216        1.63323697       18.75036806
  315      1      14.88668523       27.50712612       17.55811578
  316      1      13.25483306       21.45333378        5.43002325
  317      1      25.64198793       18.97708633       11.97671966
  318      1      24.62970623       18.46117132        9.81432014
  319      1       4.24444311       24.76725944       12.34616095
  320      1       7.77333672       24.38643900       13.43911367
  321      1      12.53426102       17.62641566       24.87561142
  322      1       2.03133870        9.33933999        5.53537601
  323      1      20.30086256       13.02427520       12.28869393
  324      1       9.94581432        0.73567240       19.91957070
  325      1      23.94585857       22.63978490        8.02525434
  326      1       8.34918775       26.53936567       12.73539378
  327      1      23.45079163        5.99746487       11.52556683
  328      1      14.81627455        7.75431215        5.24905268
  329      1      21.66796302       22.35667805        7.60229205
  330      1      23.75690578       16.29943755       13.95464263
  331      1       3.78244515        5.18877946       12.54415555
  332      1      22.59568396       18.78085564       21.81659084
  333      1       0.68407652        3.77224083       21.89666888
  334      1      11.00844932        2.29580733       14.22757993
  335      1      26.23470665       21.19748160       11.83970080
  336      1      19.63653256       20.48513494       11.20193216
  337      1      24.85424192        5.17244786       22.60929254
  338      1      19.89473824        4.37032246       11.02027283
  339      1      19.07198125       19.71135436        7.10993871
  340      1       8.78819970       13.06493608       13.39740275
  341      1      11.44436259       11.05401937        1.93819960
  342      1      18.73130832       19.17639057       27.04874026
  343      1      26.90481281       15.88734134       15.43259529
  344      1       3.54161828       25.86023306       23.98066451
  345      1       8.86957063       21.71101700       20.10294196
  346      1      24.08689773       10.92067686        0.86210975
  347      1      13.48435808        5.12975906       25.08189525
  348      1      25.88320835        8.62375873       13.48238694
  349      1      26.23636889        9.58281413        6.93643190
  350      1      18.23273849        1.13586269        7.26199026
  351      1      26.83874003       22.91524858        3.33385459
  352      1       8.10618798        0.30323617       26.39798771
  353      1      12.95264558        2.33471410        8.23682988
  354      1      19.75599661        8.97965730       25.47466098
  355      1      16.11054609       14.90756657       24.34503162
  356      1      19.73961886       12.46431061       10.03679257
  357      1      18.19330758       13.29198852       19.20458305
  358      1      22.64117084       18.80642351       25.62782662
  359      1      25.84956011       25.28757784        9.98502030
  360      1      15.12529019        4.39958304        0.66982449
  361      1      12.37933840        3.04099753       25.69083667
  362      1      10.17289829       20.41527229        2.74194113
  363      1      26.13970338       24.73806988       12.14046107
  364      1      16.18800790        1.16180046        2.08038750
  365      1      19.00043860        0.78662373       17.81095131
  366      1       6.61763386        6.73673046       24.02225614
  367      1       6.61788674       15.59482294       21.74920443
  368      1       8.38576670       25.89205948       27.56350557
  369      1      15.50894824       20.12466643       18.02936733
  370      1      10.85804545       27.49807575       23.69487528
  371      1      26.95049559        3.72962728        1.46870915
  372      1      23.17247746        5.73318913       17.99174713
  373      1      14.34469944       12.64211003        3.51600321
  374      1      16.81530309       15.46899742        3.00018977
  375      1       6.20780568       14.42014522       19.74121999
  376      1      26.12801056       20.48475151        6.44827710
  377      1       9.04579706        8.34985387       19.79136786
  378      1       3.95268876        7.34032775       13.57484761
  379      1      27.04277756       12.80475346        9.50982612
  380      1      24.76476449       19.94976897       18.42623623
  381      1      12.73613829       22.30814408        9.45044744
  382      1      12.90903035       23.60409873       21.22020405
  383      1      23.92097547       10.49865955        9.80767312
  384      1      18.11995703       11.37801112       20.78782124
  385      1      14.19455127       20.66074197       16.11817416
  386      1       5.83309544       19.69312856        6.19932951
  387      1      27.06337839       19.75922772        0.83128430
  388      1       4.19213965       17.66787351       19.87418074
  389      1       1.06754374       10.92487521       17.34149477
  390      1      11.13559115       22.30103094        1.75522113
  391      1       1.61518542       17.61229891       23.51138997
  392      1       3.75937416       27.25666898        7.13153063
  393      1      26.47161553       21.53683423       15.39066902
  394      1       7.38345419        0.49464322       14.19091906
  395      1       4.54522995       27.17948149        3.03648885
  396      1       5.50344147        3.52058171       13.06618019
  397      1       5.62326823       15.32692841        7.30737667
  398      1       6.34999330        0.03942595       20.87020117
  399      1      27.12465329       17.89131129       16.60170054
  400      1       9.02405077       18.39870983       10.88846809
  401      1       7.88543487        1.31261461       10.17537000
  402      1       1.79773832        4.16027968       13.19135292
  403      1       5.67875571        3.31880373        4.05980750
  404      1       7.41382069        8.25924015       13.01807657
  405      1       1.04536715        7.46514944        8.67948204
  406      1       2.71254344        9.65201246       16.10073429
  407      1      25.28326915        2.21992911       10.44144552
  408      1      19.31971724       26.73818303       10.35530628
  409      1      18.40648441        2.70019843       10.47138962
  410      1       7.57477264        5.38535292       17.87991254
  411      1      18.33039114       17.21095996       25.81708019
  412      1      11.86444386       10.87565296       18.35488011
  413      1       6.16177670       25.19046364        0.22091593
  414      1      14.49854564       21.30070340       23.83617505
  415      1       3.08650809       15.62727230       12.25001865
  416      1      12.21424539       14.22765623       27.12440149
  417      1      21.63274778        1.52607348       10.68925975
  418      1      22.92772879        0.00449974       12.95652004
  419      1      10.69243931       26.51270124       12.56620227
  420      1       6.60002756       10.51218537       21.77248376
  421      1       0.60413853       12.42301356        4.12282969
  422      1       7.73576149        9.75928744        3.80711322
  423      1      19.92392677       23.25457522        8.95095886
  424      1      20.71522588        8.46067561       10.68582179
  425      1      22.41260804       24.12497445        0.98229310
  426      1      17.25881209       20.75656653       25.99921732
  427      1      12.75936343       18.46841349       11.19217142
  428      1       3.41645836       25.04317998       14.77882241
  429      1       5.82550634       12.96849472        4.03687782
  430      1       7.39234551       12.98272619       26.96647906
  431      1      24.50223999       22.82122861       14.84718381
  432      1      22.72320664       22.92598076       11.31569587
  433      1       3.56617924        3.30259215       24.38454705
  434      1       0.70103570       22.78110508       16.44235379
  435      1      21.12141571       25.78528364        6.72537084
  436      1       8.42893825       24.95167080        9.34584331
  437      1      16.00521063       23.79818964        8.81480134
  438      1      12.98296318       25.39374239        1.10685154
  439      1      20.73019067       13.12963652       16.69251416
  440      1       3.83284845        7.91422562       17.14463517
  441      1      17.26350013       25.18779266        7.42162750
  442      1      17.27860422       15.78336540        8.72496885
  443      1      10.11201741        5.07823179        0.84637143
  444      1      15.32601380       14.93808907       11.96155016
  445      1      11.02089826        9.09095560       12.56169839
  446      1       4.36829004       22.30014593        3.82004253
  447      1       4.93128879        7.03122938        6.03104085
  448      1      24.89888994       18.99804394       24.80260992
  449      1       6.46393716       27.36179279        4.37635229
  450      1       9.45592853       27.40578780       17.70000924
  451      1      27.56890264       26.70166309        4.07101369
  452      1      19.61990819        9.31858272        0.07597385
  453      1       1.94629458       22.87434944        0.56574322
  454      1       5.93342311       10.80684247       19.50181715
  455      1       0.57421867       21.62185487        2.02591335
  456      1      17.31480436       11.98070556       17.35649349
  457      1      11.19642960       24.37413159       13.53555754
  458      1       4.61887597       15.20847688        0.70132217
  459      1      22.04272014        3.98871546       12.18233737
  460      1      20.14789881        5.59224819       15.38907824
  461      1      19.79787566       12.86931314        1.86875646
  462      1       4.38663449       11.42720043       15.73709910
  463      1       5.28007835       27.53718358       24.47516230
  464      1      13.21621872       15.12420050       13.17856082
  465      1      23.14845359       22.76914705       25.12159465
  466      1      17.10485846        9.30053733       11.97470750
  467      1      24.61577762       20.19308858        4.68160895
  468      1      21.86453352        2.64119447       22.68648408
  469      1       7.77130992       16.40140296        7.50823305
  470      1       5.33597502        6.85567091        3.71301446
  471      1      25.61880768       11.65977362       25.06407358
  472      1      22.88339789        1.64111735        4.85325690
  473      1      22.50451607       12.00329411       15.42472982
  474      1      27.63400731       21.91961591       22.97166137
  475      1      11.42532559       21.23570457       25.95933585
  476      1      15.73027137        2.26863059       20.24882190
  477      1       7.73805545       11.41191380       18.13969248
  478      1      22.78966868       12.30386815       27.22248074
  479      1      11.84948092        1.30432992        4.51426558
  480      1      12.21744361        4.63461768        8.34928359
  481      1      22.35075656       19.73215122        5.13661711
  482      1      14.50365390       23.05562563       15.51156421
  483      1       6.70378387       14.37452513       23.67779647
  484      1      17.89048839       19.15350792        1.62654554
  485      1      18.68696561       14.96667761        1.72556084
  486      1      24.66213395       24.99559911        6.03253702
  487      1      19.44789807       22.24834717        2.83895764
  488      1      16.13410985        4.85951829       11.64390388
  489      1       9.29939568       17.13020224       16.84803377
  490      1      12.18273857       15.81521557       15.25285796
  491      1      11.78030507       20.44799988       16.49930298
  492      1      27.22607140       15.76311476       13.02368252
  493      1       3.28430320       22.95609363       15.80014231
  494      1      19.10999094       26.11912047        2.09804554
  495      1      17.85648379       22.75763103       18.65718203
  496      1       0.05241129       16.92926235        8.46895115
  497      1      23.51025436       25.11403881       24.93463206
  498      1      20.18277497       27.11541456       24.64132473
  499      1      24.65269439       15.48531813       15.90756636
  500      1      18.82619796       13.35207019        6.31934912
  501      1       6.38083040       21.99230733        2.40418147
  502      1      18.16272854       14.04734811       23.45111331
  503      1       1.64646516       19.40856931       13.66562043
  504      1      22.37934455        0.36789527       15.27278590
  505      1      17.90272429        5.40792697       14.73246727
  506      1      16.04820544       10.07000410       18.00701944
  507      1      22.04925507        6.75180267        9.74133113
  508      1      12.89943424        9.38964845        2.69627087
  509      1      13.81646691       27.62167212       13.52777022
  510      1       3.01623529       15.58189119        4.17748719
  511      1       2.50988133       16.41596766       16.14941757
  512      1       8.66844536        8.07701269       23.83348108
  513      1       7.90707772       16.80183968       26.28577553
  514      1      17.86180347       26.60044935       22.13021847
  515      1      12.71098503        4.79156522        6.07581104
  516      1      13.21389895       23.73787972        4.66350420
  517      1       7.09191609       20.18234510       23.11392373
  518      1       1.36256993       10.17361763       12.54593795
  519      1       9.99234083        5.53131974       18.05730831
  520      1      18.62879913       25.42958920       25.39152774
  521      1      23.19477460        1.98970439        9.05111400
  522      1       3.94649892        5.52136055       10.17163603
  523      1       3.11260111       15.88435709       22.71636447
  524      1       4.10299346       12.22682929       13.52048707
  525      1      16.34252524       17.27449835       24.61115943
  526      1       2.51863816       26.56821040        0.09725449
  527      1      12.85245952       25.93052904       20.57380204
  528      1      20.83503246       18.39701103       14.38376053
  529      1       3.90283562       21.80180334       27.20001342
  530      1       4.64608188        3.31875098        6.16926771
  531      1      14.81798904        8.25172029       12.21269461
  532      1       7.31431770        7.75665522       18.14918026
  533      1       6.48435971        3.34372382        7.56194136
  534      1       4.87230042        8.17083824       24.39205824
  535      1      14.27279282        3.47885587       16.80866589
  536      1       3.24607049        3.67749380        0.49723775
  537      1      23.75930686        6.78073276        3.09224268
  538      1      18.93677230       21.20912866       17.08499649
  539      1      20.47062497       23.08923877       14.61241043
  540      1      23.72471551        3.72786099       19.34706424
  541      1       1.27763346       23.81600691       20.13391158
  542      1      12.87432758       22.98753888       23.56632267
  543      1      13.40565033       23.64370363       13.37266183
  544      1       2.70870869       25.64175364       19.98282666
  545      1       3.01972784        1.57221417        6.11705526
  546      1      24.68574309       11.70175173       22.86087051
  547      1       7.68780750       18.56188874       19.98616616
  548      1      10.91566443       19.28382921        9.92204011
  549      1       4.67778625       22.17827008       24.91321915
  550      1       3.38418815       12.60708966        6.72621560
  551      1      23.85650307        2.37893482       12.65975546
  552      1      17.61846478        6.38765774        2.54640877
  553      1      18.55145617        3.14432203       17.72877510
  554      1      17.56340821        1.82414933       25.18972813
  555      1       6.78739922        3.22868893       22.22887583
  556      1      18.99861688        1.64936388       27.29497170
  557      1      17.77487939        7.95761099        0.81952084
  558      1      23.17519483       23.26763728       19.28103204
  559      1      22.83199055       25.33182645        2.84689568
  560      1       0.11672049        7.39996496       20.12664209
  561      1       7.72877979        4.75429576        1.43919521
  562      1       0.68515836       23.72762289       12.64321437
  563      1      20.27460257       16.70454637        2.12747452
  564      1       7.55681296       11.52402470       12.05207948
  565      1      26.84099767       24.26986697        6.74545514
  566      1      26.71317363       13.07916333       19.75942090
  567      1       0.84409767        2.11521121        7.13885053
  568      1      17.37833249        3.29114048        7.18833606
  569      1      27.34722647       24.93754687       16.04852535
  570      1      20.91772973       22.03642658       25.59567666
  571      1      13.40419093       15.21591362        5.96531960
  572      1      17.05083878       20.49970868       13.60326301
  573      1      25.53474595        0.27616377       17.43415344
  574      1       2.63224287       26.96820962       22.08763114
  575      1       8.90266610       18.76586358       25.57840985
  576      1       6.26318282       24.41566867        2.37740723
  577      1      13.12981918        7.47679116       17.73674434
  578      1      14.56628752       19.63380924       21.88001681
  579      1      15.71228409        8.53175748       21.97648109
  580      1      27.14924134       21.57875939        9.70751101
  581      1      21.25648815       18.76006570       23.73558306
  582      1      23.29433723       23.79970352        4.52976766
  583      1       6.70996231       21.40174695       21.13875139
  584      1      24.43349493       15.96326591       10.12592202
  585      1      20.64366732        6.86720282       24.87191046
  586      1      14.65196157        2.03984342        9.75000581
  587      1      25.86743747        5.79669126       11.16738210
  588      1      13.56567505        9.81199455       15.15204697
  589      1      17.20864142        4.75367696       22.97775169
  590      1      21.40790036       20.15240164        7.26306406
  591      1      18.67992432       16.85117311       12.08876693
  592      1       4.89823133       14.38664682       12.98096323
  593      1      11.03227478       14.74920003        3.07673265
  594      1      20.91367479       20.32037310        3.23668342
  595      1      17.84685574       27.65251307        0.72955186
  596      1      25.38269155       26.81652676        4.65969353
  597      1       0.20702441        4.95706072       17.51230748
  598      1       7.40570235        4.38526074       14.09099129
  599      1       8.90834887        4.42537752       25.07632679
  600      1       7.50692261       14.18710499        3.00337325
  601      1      11.75156384       15.91244047        7.75091405
  602      1      12.05126576        1.88283121       23.65234648
  603      1      17.56770699        4.20964072       25.21371490
  604      1      13.73074561        6.30448878        9.19846559
  605      1       3.54282594       12.20254399       26.52420878
  606      1      17.59938098        1.65896544       12.38060003
  607      1      27.23528031       17.13441867       18.89088418
  608      1      27.64117198       26.66333547       25.06485388
  609      1      16.25318817        6.84756982       15.76805647
  610      1      25.86995928       26.41218863       21.70570300
  611      1       4.47913223       12.66249721       19.41460673
  612      1      19.49728619        9.18656005       16.41904959
  613      1      25.44251894       23.28855885       20.12620316
  614      1      11.54431991       26.55147615        4.79451255
  615      1      18.01224920       10.46307391        9.98540904
  616      1       2.07525842       19.44188205       25.12052111
  617      1      13.67404134       26.17389920       10.14878387
  618      1       9.02672793       20.81448688        7.32982806
  619      1       1.97656089       19.93022788        7.18636094
  620      1      10.69130496       19.80662929       22.29990696
  621      1       7.06312807       22.88205707       16.80089433
  622      1      11.96582706        9.57818946        7.21752573
  623      1       5.79156987        0.91807678       26.66215947
  624      1      16.84396814       15.96136215       13.38243395
  625      1      15.21861124       11.42153206        7.16665061
  626      1      22.64817365        3.90602093        7.81403782
  627      1       5.83427077        4.27126209        9.58807537
  628      1      15.94990139       16.68667841       20.22781128
  629      1      10.64821341       21.98706560       23.57604318
  630      1      16.16632214       17.69208993        2.23463493
  631      1      20.60846907       13.58564832       19.10903296
  632      1      24.37560441        6.38997617        0.75522759
  633      1       0.88189460       14.67929293       16.67518442
  634      1       1.28349768        2.83101092       24.02204114
  635      1      18.23613378       22.12542333       14.99915717
  636      1      16.91608508       26.45325508       26.65405158
  637      1       5.66440291       17.62220186       26.02143566
  638      1       9.07136245        8.82269277        0.13790129
  639      1      23.62113636       22.08980173        1.16597028
  640      1      27.50439615        3.91700765       25.58047897
  641      1      11.01883256        1.23921392        8.87958558
  642      1       9.14083051       15.09642170        4.43982246
  643      1       4.97657626       19.98727810       20.14966096
  644      1       1.35319685        2.68927686       11.17041358
  645      1      14.48449156       27.08209484       21.86606306
  646      1      19.32365133       13.75696535       25.54094660
  647      1      21.33125897       15.77130117       27.46168612
  648      1      12.32276422       15.21611062       24.88068019
  649      1      21.52843051       18.28308815       16.75421229
  650      1      20.10987543        6.55166727       19.08974502
  651      1      26.90623139        9.66232753       11.70906790
  652      1       5.23035648       14.01955325        9.27453778
  653      1      25.30296017       12.03572810       18.20191817
  654      1       8.07103164       20.87693311        3.61887356
  655      1       2.01568807       12.77876873        2.27895655
  656      1      11.87390329       13.05748397        5.94871434
  657      1       6.63905627       16.03075491        1.82198929
  658      1      26.22164089       20.36440809       26.28244674
  659      1       8.94949981       22.98495779       18.24214614
  660      1      16.25658435        7.56367842       26.69248765
  661      1      19.39737457       18.52797061        3.32635382
  662      1       0.93262104       16.23080545        0.74857357
  663      1       1.20351088       25.33562647       14.23002457
  664      1      17.13366763        9.81171255        2.42885421
  665      1      14.96582283       14.57618805       17.60102228
  666      1      11.99999296       12.63720240        3.59659871
  667      1      13.03516448       19.84875419       13.01358161
  668      1      21.15026603        9.08780158       22.10387459
  669      1      20.74422317        4.98421888        8.85445407
  670      1      24.07307531        7.54830940       19.20884868
  671      1       8.49570318       11.71860446        6.83466924
  672      1       7.56460896       13.61477303       15.28930746
  673      1      16.40909405       27.31915608        7.46649220
  674      1       1.54963150       12.82644774       10.25161195
  675      1      25.68204845       11.55290432       10.93640158
  676      1       8.22938472        4.82239344        7.05213384
  677      1      20.42613606        4.75327600       17.60259304
  678      1      10.44346998       18.59300092        0.99161348
  679      1       2.02592409       22.70564851       22.05967465
  680      1       3.39461343        2.44797079       19.74769931
  681      1      12.64211347        8.67734601        5.06284405
  682      1      19.93681021        1.96411088       21.61470610
  683      1      15.34475492       23.84956225        3.75906048
  684      1      23.30064154        9.75174090       15.91966298
  685      1       2.29202169        8.81494386        3.20178900
  686      1      22.44320738       10.16596665        2.58655900
  687      1       4.21074227       12.26345904       24.31353839
  688      1      20.73204112       26.30883457       12.37506880
  689      1       5.28270164        8.57948248       18.87121524
  690      1      16.89838161       15.42856273       18.51979677
  691      1      20.94835384       10.24274970        7.22978408
  692      1      15.62232111        5.29812716       26.21994928
  693      1      18.97361856       17.80308344        5.73503728
  694      1       1.90050908       25.50845296       25.70064240
  695      1      21.36014007        6.52904208        2.16625251
  696      1      23.53378938        8.15635353       27.12926696
  697      1      19.03913046        0.68613187        5.13665406
  698      1      20.97119060       11.78734113        3.66131501
  699      1      23.49761678        8.31089005       21.64188725
  700      1      21.17023710       27.60061454        5.14459155
  701      1      25.04400827        8.74733396        8.74895756
  702      1      10.45334235       23.02095032       21.27064631
  703      1      10.52073139        6.76012722       12.06828856
  704      1      22.30726722       21.66996967       15.03536584
  705      1      19.27036518       15.85691870       22.04727507
  706      1       0.23131480        3.11457047        3.59067237
  707      1      10.79361330       26.76283308       21.41009140
  708      1      15.06183066       19.39389176       14.37562051
  709      1      16.41327816       27.59831188       20.59973478
  710      1      23.32579395        4.45381043       25.61308893
  711      1      14.52816887       17.40208979        0.43359609
  712      1       8.71963834        0.57547896       24.12797516
  713      1       5.46294263       17.68951090       14.59144866
  714      1       2.44123301        6.47959246       19.91827498
  715      1      16.30909305       20.10507296        9.82715301
  716      1      10.19191820       19.02028724        6.25980143
  717      1       1.35415918       27.51515048       13.41668861
  718      1      11.32767447       10.69506988       25.48066250
  719      1      25.45045427       19.43873786       16.07785146
  720      1       2.16274404       20.02082066       18.09169280
  721      1      19.15403292        2.62095430        3.80169479
  722      1       3.71512308       10.06660575       27.36542688
  723      1      24.03738963        4.81282567        4.30815055
  724      1      12.28623714       11.82540908       27.41640954
  725      1      10.08652799       13.34618023       20.27402675
  726      1      23.32567242        8.83966274        4.30316867
  727      1      13.71664756        1.95120470        5.95902200
  728      1      23.42060475        7.29386494        7.92916630
  729      1       0.13080384       16.04129842       24.36830566
  730      1      26.72433413        2.69003238        5.64065498
  731      1       0.43545116       21.20921033       25.14123530
  732      1      26.30005544        4.39245017       19.30619664
  733      1       7.19829802       17.78253024       17.81674209
  734      1       1.46502317       11.55126565        6.01493275
  735      1      19.23262888        2.14941121       14.21499062
  736      1       7.75055188        1.85870532       20.39284091
  737      1      20.92987916       14.33706121        6.46896781
  738      1      12.82402114       11.68687015        7.59047884
  739      1      13.80251510       18.72558585        7.78764052
  740      1      23.17444761       14.49911281        2.86616178
  741      1      19.14142715       11.50606734       15.98165566
  742      1       8.24072531       13.58273960       18.83652465
  743      1      22.93748117        6.78028857       25.25402304
  744      1       7.06604848       21.80353786       24.78567998
  745      1       3.34753644       21.33381481       10.65068618
  746      1       0.98508386        0.48765945       23.50380013
  747      1       6.05276442        8.72813961        2.51519817
  748      1       5.71639447       17.28465440       10.78984510
  749      1       9.99572220       26.23583469        6.51526523
  750      1      18.48235166       19.42521165        9.40735367
  751      1       9.22529862        1.74146953        0.07401192
  752      1      22.67299791        2.62746039       15.76499773
  753      1       3.79193010       20.26875771       23.86957605
  754      1      15.74690774        3.38296069        5.42638902
  755      1       7.12098352       18.86319495        4.40178078
  756      1      23.13728390       17.05245850       27.11313614
  757      1       3.80717864       20.23890543       12.72387466
  758      1      25.61437571        9.62126758       26.46518836
  759      1       8.80272250        8.95673966        9.39430792
  760      1       0.11765197       17.98743349       12.29383196
  761      1       3.15615261       17.18801323       13.98532266
  762      1      11.00725855       19.69386026       14.40287612
  763      1       7.43264974        1.67091137        3.64663558
  764      1       2.58887415       15.02059586        1.97365802
  765      1       3.72862201       17.74080469        4.13589396
  766      1      19.14940606       18.71633151       19.57884985
  767      1      14.60196337       18.12317982       25.87455872
  768      1      18.59266069       23.02201833       20.86613080
  769      1      17.08797993       16.51200427        6.52651501
  770      1      20.71399416        8.84240777       18.44045823
  771      1      24.41204401       13.16205297       16.27513715
  772      1       8.67220719       23.41682604       24.22859700
  773      1      14.03682096        1.94141109       18.62024508
  774      1      20.14143222        2.68215550        1.55070619
  775      1      10.47054728        7.20950670        9.73920464
  776      1      20.61876009        5.54469486       21.14200131
  777      1      15.61991986        2.90797989       12.89557392
  778      1      13.27508242       11.83975832       11.27684781
  779      1      19.43530400        9.09235217        8.75449269
  780      1       7.44200328       27.00243231       16.17090637
  781      1       4.79349832        7.68499051       10.01448872
  782      1      24.55401070       26.81571783        2.51879196
  783      1       3.63540550        5.98305377        0.48717911
  784      1       3.72475069        5.12516279       22.98426662
  785      1      13.53486030       23.64258405       17.62818261
  786      1       7.19198282        6.91852372        6.79041471
  787      1       9.66949980       13.62164936        6.21500747
  788      1       4.96543397        1.93766436       23.23143246
  789      1      27.26839757        2.13888892       20.28223114
  790      1      22.08358935       15.38729658       10.04539777
  791      1      21.50441715       13.49660389        8.67098864
  792      1       6.48842103       11.97191176       23.66299141
  793      1      23.95079774       12.20411519        6.05400644
  794      1       6.26390808       26.15923097       19.16326229
  795      1      27.48068710       25.04858169        2.43982748
  796      1      25.01920844       15.18384880       12.30202883
  797      1      25.73121378       13.65357648       21.93620889
  798      1      15.14959679       25.41804020        2.13049798
  799      1       4.50826237       14.23546915        5.43175797
  800      1      10.12148431        6.22395243       24.04551052
  801      1      10.69248247        7.51679542        4.36756036
  802      1      26.46057823        6.49189107       16.41953394
  803      1      20.09282981       20.86424039       23.66839464
  804      1       9.51590853       22.97778961       12.79571012
  805      1      21.18387246       23.62129483        5.73384009
  806      1       1.81600259        9.21237968       26.49008110
  807      1      10.76314336        3.42317886       17.68880505
  808      1      21.08962391        3.70006073       14.31805190
  809      1      21.02260416       20.08934662       26.93708455
  810      1      27.56198786        6.26387418        4.95518213
  811      1       8.48271668       16.90563010       21.62799389
  812      1      15.88147270        5.97785909        8.20768066
  813      1      16.53333204       11.83164153       26.79343468
  814      1       8.33914400       14.66409527       25.30954625
  815      1       7.60070190       24.74760719       22.58677336
  816      1      26.41447317        7.86423521       24.84247613
  817      1      14.54037553       10.96972356        0.07136523
  818      1      11.67384786        3.07615944       12.12806299
  819      1      10.86786134       12.38522668       14.46600766
  820      1       1.75224092       18.19093105       19.56026080
  821      1      13.81311436       21.07191941        7.66993802
  822      1       0.75304739       11.32167938       19.86301606
  823      1       0.74362036        3.61436751        9.01485936
  824      1      10.27217573       14.69427183        0.88227815
  825      1      27.35182891       23.86463177        8.97110362
  826      1       6.16911042        5.22397422       15.93810569
  827      1       0.87023240        0.89878478        2.97866889
  828      1       5.90197950        5.62102484       22.08548979
  829      1       8.82365011        9.62355891       11.74956393
  830      1      26.63216001       10.90701730        3.46263803
  831      1      19.59293029       11.25396445        5.50144514
  832      1       2.19836928        5.39096733        8.52593868
  833      1      15.47317037        0.06646514       15.24289365
  834      1       4.16853263        0.90702151       21.33142729
  835      1      25.86330773       12.25632499        1.69930592
  836      1       8.37746545       24.62490103        5.68231431
  837      1       2.66989356        4.43082062       21.00278013
  838      1       8.01201776       24.75427122       15.64426067
  839      1      22.03842089       26.70925583       19.77053955
  840      1      22.27816903       23.19267653       21.45137567
  841      1      10.31878695       15.32274191       21.63757241
  842      1       5.22642479       18.80159139        0.43312984
  843      1      12.28834315       10.17633470       20.47685221
  844      1      24.97097884       15.66490721       26.60479129
  845      1      13.28310523       24.79856182       24.91327792
  846      1       2.20154436        0.50705019       11.21767900
  847      1      24.33767757       15.50938374       22.74508582
  848      1       5.88399453       23.22036023       12.72753576
  849      1      19.15149555        7.96205905       12.47761776
  850      1      17.51104281       21.45822030        1.78722568
  851      1      15.66197106        2.45244527       15.21153471
  852      1      16.72527811       10.68934749       24.65548418
  853      1      15.16303895       13.34090169        5.65825802
  854      1      11.69267452        2.36712324       19.60560494
  855      1      11.21399829       22.74151371       17.18156946
  856      1       1.90620680        8.46431112       14.13425715
  857      1      23.22376152        0.77208274       22.85203053
  858      1       6.94746708       21.06507189       15.34588970
  859      1       9.02942011        4.33981577        4.98197832
  860      1      10.46352047       24.56318879       15.73916329
  861      1       3.33302917        5.23520330        6.35510183
  862      1      14.27054845        1.48074389       23.19883999
  863      1      20.21933109       10.24200034       20.29611524
  864      1      18.53934220       12.41775827       13.80156718
  865      1      27.27285028       26.32561427       17.90492055
  866      1       6.79767709        8.16936431        0.33099400
  867      1      11.06014646        5.28033857        4.49304604
  868      1      22.76591366        0.29740159       27.21085335
  869      1      23.62647491       17.10793182       17.27297796
  870      1      20.98527673        4.69517258        0.60189625
  871      1       5.25115939        8.60217796       12.10707723
  872      1      25.02161593       10.05564800       21.29832532
  873      1      13.88027040       16.45500669       16.70986283
  874      1       3.40598965       17.02217447       10.20330222
  875      1       4.39118210       15.17573896       16.71072076
  876      1      21.84044557       13.80514570        0.99016578
  877      1       2.98319671        0.83908195       14.81454753
  878      1       3.13118369        6.58615389        2.80408523
  879      1      26.11395406       27.61642498        9.30834476
  880      1       6.78680870       11.30274285       15.96923294
  881      1      15.10207073       18.46493114        4.21644007
  882      1      22.96181344        9.28258369       18.17704992
  883      1      13.79955203        5.83908665        1.95637944
  884      1       5.18971914       26.30481782       10.76578877
  885      1       2.73357177        7.03491284       24.07112985
  886      1       0.38960300       27.62436735        7.91692651
  887      1       1.92995429       24.51723616        9.17794335
  888      1      18.81356116       17.18668786        9.77109323
  889      1      22.45563619       16.67951451        3.02590472
  890      1       1.50493916       15.50568593       26.29277491
  891      1      12.25507918       16.62204504       21.01767371
  892      1      13.62217282       21.86786501       11.80419075
  893      1      25.91218630       25.75329628        0.60270145
  894      1      12.18501987       27.19788045       27.40748949
  895      1       2.84806815       13.81113002        8.65161970
  896      1      19.45981855       26.25132955       14.52445485
  897      1       2.95821442        8.83510631        9.06032233
  898      1      22.84185177        4.40817368       21.45159727
  899      1      25.18730544       26.55508054       13.38521979
  900      1      17.53582232        7.22764501       22.94422754
  901      1      19.23346805       22.81973428       11.11245197
  902      1      17.09529173       25.96064523       14.48576252
  903      1      26.68476633        5.98606593        0.92055965
  904      1      17.77293525       14.39649467       14.81590231
  905      1      14.25188858        8.76826625       27.03945212
  906      1      17.12688800       26.92839697       18.36178342
  907      1      23.96014142       27.58637823       20.78578815
  908      1       0.63284883        2.78985274       16.74755876
  909      1      11.33965894       26.58270733       16.55714373
  910      1       9.61079182       26.10525972        2.09631636
  911      1      26.76197742        7.82641578       10.15183465
  912      1       6.02384292        2.49797370       10.91174493
  913      1      20.40273791        7.83327671       14.66050394
  914      1      22.09902286       26.45506024       23.57031830
  915      1       6.70847748       11.28699070        5.37522453
  916      1      24.60991885       22.17374908        3.32955141
  917      1      22.22375466       20.20786589        1.29619406
  918      1      26.52047012       10.07962960       17.37350899
  919      1       5.36570423        7.34818017       15.48788611
  920      1      11.31800419       12.08246469       23.55803346
  921      1       8.95385609       20.90725043       13.88539730
  922      1      13.57845464        5.23335577       22.62150049
  923      1      17.52476652        8.51411351       24.95747953
  924      1      17.29617933       24.52959852        5.14297825
  925      1      26.11271823       14.99751645        8.67763183
  926      1       5.74482164       18.79451205       12.55777944
  927      1      11.66992152        0.04942717       14.39387047
  928      1      16.44377129       12.03815984        9.10286667
  929      1      13.66653189        1.27235127       26.73990839
  930      1      17.71447553       19.30966611       17.70985157
  931      1      19.63538095        1.11777653        9.31945819
  932      1       3.50779389       13.03427882       17.25957197
  933      1      20.01910489        4.41818208        5.03776759
  934      1       2.26432044       26.87965701        9.12212956
  935      1      20.98346629       15.73983137       20.16576439
  936      1      15.44139691        7.30353922        3.10437586
  937      1      14.89347591       10.65101176        2.35434540
  938      1      22.40564842       11.96409552       12.97081306
  939      1      14.72925692       11.79323437       14.48092659
  940      1       8.14574563       22.20460530        5.58198623
  941      1      15.73512375       17.24481750       15.21443586
  942      1       5.71369611       21.97453170        5.77059592
  943      1      12.63848969        7.78459909       19.98208173
  944      1      12.24298102        2.14944907        2.35088418
  945      1      26.09688299        4.24014405        9.46181257
  946      1      15.45103108        0.51553931       25.31043156
  947      1      12.49700101        8.31828987        9.19374471
  948      1      15.49754453       22.35539103       18.73711595
  949      1      21.40101027        3.22448005       24.95403568
  950      1      25.28119158       20.71263449        8.57021104
  951      1      10.41413214       21.55880055        9.23557624
  952      1       8.69015124        9.47558611       21.83332820
  953      1      18.00426540        7.49673293        7.47202999
  954      1       9.97247610        2.75962921       10.31560770
  955      1      23.67982177        8.03059391       12.76525376
  956      1      21.04039157       15.19552495       25.18269340
  957      1      13.47378593       21.71229568       27.03008277
  958      1      13.64973714       24.44814172        8.59024529
  959      1      15.17933798       15.99642871        9.86118513
  960      1       9.62993884       13.50001777        9.83491397
  961      1      21.04791954       17.12309313        8.91709463
  962      1      26.92038515        2.36992022       12.24245121
  963      1       6.09827786       27.12221108        6.80814960
  964      1       8.65418695       14.67631397       11.68724804
  965      1       8.02718851       20.85478596       26.66318630
  966      1       7.39203492        8.90378356       15.45301889
  967      1      18.35017031       11.28394477        0.76260077
  968      1       4.52903200        7.47239745       20.75159120
  969      1      11.76027495       13.18922270       18.56832353
  970      1      26.41673298       21.24030291       19.54115335
  971      1       0.33147059        8.05630340        6.48689309
  972      1      18.33215933       11.68424464       23.12558303
  973      1       4.82691775       22.91650804       17.68861521
  974      1      11.24526638       10.04404250       14.68199005
  975      1      25.12406389        1.48779485       24.05007879
  976      1      20.85828699       23.92062493       12.42646717
  977      1      25.91464479       12.30224184       14.73156877
  978      1      17.18250639       27.25744332       11.17252354
  979      1       0.94772046        0.68173334        0.59489541
  980      1      14.17556558       11.59877240       20.75046677
  981      1      23.22728849       25.90224295        7.70103667
  982      1      15.17826791        3.45880793       22.27418628
  983      1      24.22266625       13.47618966       25.84214665
  984      1      12.76324886       17.48967891       18.72429791
  985      1      25.82950363        4.84346153        5.77308467
  986      1      14.86722754        5.78098389       17.38300975
  987      1      11.58082317       19.87823095        4.59129401
  988      1       3.56467488        3.26129406        2.89572976
  989      1       8.62820493       17.34183116        5.46461524
  990      1      25.78526916       13.59759193        6.53043182
  991      1       3.97027403       23.67046888       23.19953080
  992      1      17.64931100       16.99252762       16.80960002
  993      1      13.31617232       25.52692487        6.27084684
  994      1      22.33994004       13.33560481        4.75963949
  995      1      24.37121061       18.61740765       13.94489030
  996      1      19.24448440       25.26067447       20.88867586
  997      1      12.26184714        5.34720505       12.53651976
  998      1      14.31936133        2.18159186        1.08039633
  999      1      18.04011121        9.66473438        4.72155557
