run_id:  1006
total_energy:   -3029.0937397300972
  1000 atoms
  1 atom types
  0.0   27.664  xlo xhi
  0.0   27.664  ylo yhi
  0.0   27.664  zlo zhi

 Atoms

    0      1       0.04954903       18.74061602        6.76476932
    1      1      14.70636983       18.61034306       19.58949429
    2      1      19.84853501       15.24004465       15.86601373
    3      1      17.39924303        8.35332845       17.17829524
    4      1      12.87605394       12.80779374       13.34448335
    5      1       8.82682796       16.67838786        0.70592130
    6      1      13.87147309       24.00328810       26.98828732
    7      1      24.73925038       22.87617979       12.50226188
    8      1       0.67263989       26.02006480        6.12816105
    9      1      26.77291819       27.55054641       27.10086216
   10      1      26.26734493       24.04090509       26.53760625
   11      1      24.72719896       12.82828012       12.64413531
   12      1      12.02127796       16.20685175       11.50726753
   13      1       8.77243661        2.82918865       23.39935605
   14      1      22.30001188       12.22714565       22.83179742
   15      1      16.01940376       21.59454190        8.00326659
   16      1      22.72869712       17.42884002        5.21920076
   17      1       5.58956651        9.42666531       26.22473774
   18      1      25.00599512       10.29975196        5.07980528
   19      1       8.61738503       12.99542000        1.14078115
   20      1      25.64723733       18.09928528        1.78187118
   21      1       2.99697882       23.64913265        7.21635827
   22      1       4.97837970        2.28851710       17.98221032
   23      1      10.40558099       14.39767226       23.82458846
   24      1       0.39120377       14.90052523       19.05354783
   25      1      27.40881099        9.48473262       21.18695567
   26      1      12.90110012       18.20084898        3.57767740
   27      1      22.33927318       19.09660988        9.28768691
   28      1      17.72527861        3.24477640       15.59096619
   29      1      27.32217520       22.37759166        5.61203224
   30      1       4.80651962       21.72462739       14.25657309
   31      1      16.69980809       18.85017886       22.83588271
   32      1      16.95433158        2.95109409        3.37344894
   33      1       9.79856822       16.57320881       12.24364965
   34      1       8.23440936        6.06004989       12.63667817
   35      1      15.74366716       27.20572651        3.60116699
   36      1      10.62977270        6.59197398       20.12790578
   37      1       7.06928299       26.92445435       23.03392350
   38      1      21.88367746        2.74229990       18.09258589
   39      1      10.72846119        0.57665699        1.32831868
   40      1      10.80113909        7.17718563       27.61601051
   41      1      10.64042702       25.33935935        8.65853589
   42      1       4.49432076        0.63557387       11.52418811
   43      1       8.93066170       18.80405320       23.13292369
   44      1       1.33467401       13.18205975       26.39966192
   45      1      23.72194816       11.00061528       19.49388874
   46      1      14.36654860        7.65931102       14.51976821
   47      1       6.61672695        4.99601108       25.68117428
   48      1      14.99216679       20.39562962       25.90594457
   49      1       9.79942377        4.86501255        9.04710511
   50      1       1.40360520       18.51959507        1.06912889
   51      1       7.39887535        2.47167746        1.36589467
   52      1      24.52260649       19.94111946       22.68721273
   53      1       0.17843729       21.45493317       13.43007235
   54      1       6.89020200       21.87614881       11.06955203
   55      1       4.65868551       24.45766566       19.59292158
   56      1       1.90790970       18.82504005        3.35340654
   57      1       5.89430859       11.64198420        9.26981779
   58      1      27.19135515       11.73489921        7.35779513
   59      1      23.35296472        4.41960789        0.22073461
   60      1       2.37859482        3.02591024       15.26846910
   61      1      18.79689430        0.73313242       23.32377649
   62      1       8.24254069       11.40615484        9.01078866
   63      1       5.41862787       27.54485585       17.40477106
   64      1      20.46699147       21.78205360       21.56040632
   65      1       7.38313496        5.48811331        3.58306521
   66      1      15.99175408       13.22090956       15.97132875
   67      1      24.43992124        7.22525986       23.55343794
   68      1       0.17698237       12.29826238       24.59307243
   69      1       7.15917664        2.96673709       18.45771319
   70      1      10.40799146       17.33539989       14.57507103
   71      1      13.75042937        9.71334499       17.38668491
   72      1      13.30718542       21.12235507        1.54007621
   73      1      24.85969043        3.51951630       14.77158187
   74      1      26.34179806        1.82514338       15.78215782
   75      1       2.67660694       10.67076233       10.64891990
   76      1       2.60174612       23.54610542       11.19107560
   77      1       7.74570130       19.92168895       12.13694051
   78      1       3.88981801       16.80244529        7.78432076
   79      1      23.71230039       26.57307587       16.60351797
   80      1       6.97876124        7.52300143        9.25673535
   81      1      18.81687682        4.00730352       21.38273124
   82      1      11.04371218       18.99561906       26.22807919
   83      1      14.75515905       27.41858424        5.81717521
   84      1       0.73335343       21.96662481       18.57548014
   85      1       5.67283350       17.98189543        2.75206401
   86      1      26.84602063       25.14052044       19.92655815
   87      1       9.56969722       14.80464329        7.95296573
   88      1      25.28997979        3.79288444       24.48945821
   89      1      24.20695391        5.79643616       15.85889840
   90      1      11.76790873        4.60298600        2.50673963
   91      1       0.54738121       12.56282655       15.62689819
   92      1      20.00414394        0.45798640       15.62324228
   93      1      16.11546552       10.26158166       20.35899572
   94      1      22.82730986       14.22360339       24.05803979
   95      1      17.75379851       20.83336761       23.70938896
   96      1      10.14189021       19.78660350       19.77861724
   97      1      12.97170790        9.45874410       11.31602047
   98      1      25.50725698       10.07275188       15.26544763
   99      1      27.52959593        6.23423112       26.30156486
  100      1      22.75858692       11.61182839        8.02777124
  101      1      15.04122984       26.05162874       24.00149046
  102      1       9.00009243       14.69694774       16.85126851
  103      1      18.93385851       22.90338699        5.01835210
  104      1      17.89864215       26.51871183        4.10132596
  105      1       2.94497613       25.47690591        5.80779013
  106      1       9.69250414       10.02031222       18.15963257
  107      1      11.20634182        5.34659415       22.12794487
  108      1      23.79818271        1.43396901        2.61222437
  109      1      16.05236598       24.53456699       27.66186739
  110      1      13.87690696       13.63970066       19.49138964
  111      1       1.81608827       15.66508798        7.48317474
  112      1      11.09639120        6.91431591       16.54860486
  113      1      12.85188254        7.76946506        0.95121874
  114      1      23.73909890       24.40192566        9.50956768
  115      1      17.08651066       14.57543486        5.22605418
  116      1      19.85291310        4.88104174       25.95262407
  117      1       8.65982921        2.35642937       14.74414176
  118      1      18.94140856       19.03124518       12.96733562
  119      1       8.88956316        2.10421014       17.07645100
  120      1      12.55758927        5.87372387       14.85240824
  121      1      18.13806434       15.16467330       27.07553087
  122      1      26.95666337       14.25459497        4.59673404
  123      1       5.83557589       19.22573235       16.46820158
  124      1      14.47554969        6.80054881       21.05943374
  125      1       2.62360291       12.35072782       20.86439212
  126      1      19.63526894        6.31279427        3.74652340
  127      1      11.13082906       13.93377539       16.31120695
  128      1      20.90860443       16.67076513        6.54813183
  129      1      14.97003638       22.22724098       20.93874368
  130      1       5.08243288       10.97068745        7.06573735
  131      1      14.87452061       17.22960685        6.19404078
  132      1      25.03791898       25.13468196       15.28526398
  133      1      16.88320314       22.75707027       22.47502827
  134      1       5.24166943       23.19236997        7.67876633
  135      1       6.07826176       21.01018680        0.34747341
  136      1       9.53633877        2.06155393        5.02334180
  137      1       3.02931203       19.46768475       27.32431192
  138      1       6.31288020       14.96031254       11.17472253
  139      1      12.92141939       15.85593261        3.71364059
  140      1       9.60732301       24.50833402       26.12312194
  141      1      26.82250636        0.62366559       13.78302885
  142      1       9.14368675        9.71960658       25.51582485
  143      1       3.88716219        9.01680987        6.89691826
  144      1      16.96035668       23.48479207       11.03949944
  145      1      21.61582183        8.60415365        1.02792163
  146      1       1.85364269       21.87113189        5.97702464
  147      1      11.43794601       26.88614809       10.28379301
  148      1      13.75445622        1.82960369       12.01968232
  149      1       7.36855637        1.22160789        7.93449570
  150      1       0.38221605       12.15923809        0.59345591
  151      1       0.06929470        9.15279379        2.39662194
  152      1      15.44437221       20.62925164        4.73829383
  153      1       7.80910274       25.67790461        3.67742540
  154      1      14.09341837       14.40283442       23.38200643
  155      1      24.78236070       17.63585416       19.26397450
  156      1       2.10807859       24.91127485        1.72717049
  157      1       8.84471883        7.61512224        3.43133049
  158      1       1.28909479       14.16277896       12.23419842
  159      1       2.11317786        6.90843020       26.36664960
  160      1       4.27503058       20.58573646       17.90907876
  161      1       5.52805551       16.36623238       18.45202459
  162      1       5.05357730        1.10828236       13.80496392
  163      1      27.43691123        7.07318544       14.34260253
  164      1      12.81968119       15.05961126        9.55838613
  165      1      19.43689090       23.59163047       26.71456294
  166      1       5.85425371       15.25415428       14.87319639
  167      1      11.05815863       18.62716949       17.91511273
  168      1      14.67790587       18.28003678        9.83508514
  169      1      26.60075492        7.24304453        3.02997650
  170      1      11.51167563       24.53053855        2.77049998
  171      1      20.63409874       15.34094467       12.05473582
  172      1       7.40621712       17.87856631        9.23780432
  173      1       1.73683843       14.48404364       21.27358005
  174      1      16.30418673        9.24189287        6.33081145
  175      1       2.27228872       21.12690683        3.71708638
  176      1      18.07782521       13.55527460        8.54969905
  177      1      25.74159941       23.32428946       22.60222678
  178      1      11.52449515       18.13383284        7.90809429
  179      1      25.57293794       18.06402005        4.06297408
  180      1       8.27584841       25.21603850       19.01003038
  181      1      22.64898046       21.01110913       18.74220718
  182      1      15.39694418       21.76892498        2.74824130
  183      1      21.14374475       26.87765766        2.94409068
  184      1      24.97272662        1.46996906       19.39147350
  185      1      21.91116806        8.33716590        6.16369733
  186      1       0.85284133       23.35804467       26.26544914
  187      1      12.59136923       18.45616688       22.54663150
  188      1      17.45663106       22.60370509       27.40381329
  189      1      14.93534518        5.57838536        6.11536086
  190      1      14.20591868       25.58085373       12.40071785
  191      1      10.81061308        3.08534723       22.01338944
  192      1      25.75928234       25.26768673       24.09079565
  193      1      21.82501656        0.98268415        1.62253213
  194      1      10.26928193        3.56793001       26.74736261
  195      1      18.06410144       24.74275065       17.51176614
  196      1      21.34302777       20.63740091       16.92532197
  197      1      16.46878046       25.40948640       12.34669429
  198      1       3.39063179       26.86774359       16.44653891
  199      1       1.23636577       18.06081325       10.20204485
  200      1       3.97500702       15.96663600       26.17857360
  201      1      16.02485572        5.79823850       19.42222837
  202      1      21.96589180       20.53457553       11.21049600
  203      1       3.78911985       24.88593616        3.49582412
  204      1      18.29628885        5.69671684       12.35318473
  205      1       9.13511661       10.68023400        1.62248041
  206      1      26.79944903        5.51080716       21.30966262
  207      1      26.25972470        7.91698670       18.31409131
  208      1      26.87215229        4.87077487       13.21066170
  209      1      12.94031947        9.00241817       25.08506675
  210      1       4.68221184        9.29077842       22.32752549
  211      1      24.80698100       22.20636936       26.75833315
  212      1       0.19756578       17.84936595        4.69119885
  213      1      23.19946835       16.69957419       20.95076618
  214      1      13.19468881       25.91674501       18.13754975
  215      1      14.16568722       15.30357109       21.17305348
  216      1      26.26351865       15.97233460        0.98674718
  217      1       4.87878929        3.18414425       26.42260015
  218      1       3.82736488       18.60717850        6.35265294
  219      1      20.48844777       10.72151248       23.79276826
  220      1       9.90996185       22.37953400       27.24020672
  221      1      11.38792699       26.03133457       25.49224492
  222      1       1.73836638       12.29410888       13.60086137
  223      1       9.79466500        8.86640576       16.14308687
  224      1      17.30280909        3.80400919       19.59375478
  225      1      16.56418159       11.39536820       12.93842083
  226      1      25.54229436       14.40089271        2.60530516
  227      1       6.14727594        5.98030038        0.09058028
  228      1      13.66348580       12.09039268       22.98619973
  229      1      26.73578353       20.21311733       21.62053891
  230      1       7.64060332        5.57542555       10.37038367
  231      1      22.43073649       19.83643412       13.49591324
  232      1       4.37493251       12.17959999        2.28824988
  233      1       1.14155576       19.04191892       21.62829680
  234      1      21.37374729       16.11120063       14.09606655
  235      1       1.78488230       27.03890714       18.22964055
  236      1      17.06321183       24.93601010       23.61593491
  237      1      20.07276004       24.02424172        1.29263224
  238      1      14.22252154        6.09355386       11.48222493
  239      1      22.25349460       25.20842234       17.92911772
  240      1      14.67972716        9.98521080       23.67601912
  241      1      19.52549454        7.85107318        5.41646113
  242      1       5.42105640       18.70777662       23.71887035
  243      1      24.86615549        2.75145471        0.91117681
  244      1      12.05854902       12.80473438        9.58442972
  245      1       6.89154936       24.98004218        7.53262620
  246      1      19.00851192        5.07708514        7.14637721
  247      1      12.16305872        3.64587817       15.85875198
  248      1      22.53327767        9.82142041       11.62265977
  249      1       1.41277292       18.83216178       16.09643492
  250      1      16.08389812       14.17032911       26.58698798
  251      1       3.05393244        1.21476825        3.77712251
  252      1       5.14675219       13.13137140        0.21577909
  253      1       5.74483079       23.47034011       21.52285343
  254      1      11.83727952        6.86028202       25.45125561
  255      1       1.01329811       15.73801290        5.22484718
  256      1      24.27587919        0.28780880        7.87836695
  257      1      24.64899411        5.17986930        7.77711975
  258      1      15.48268814       27.55535518        9.59398982
  259      1      23.38999961       18.15528368        1.43636220
  260      1      21.18649931       19.97304611       20.30926189
  261      1      25.54104117       16.71223226       24.54365769
  262      1      24.92029231        1.26939422       26.65400586
  263      1      19.95804208       16.89732828       24.08335873
  264      1      12.82583505       18.75828925        1.40227890
  265      1      17.48780991       21.21005347        6.10925665
  266      1       7.56476613       26.63370163       10.77043827
  267      1       9.36445176       24.98020092       21.05759709
  268      1       6.96380481       19.90428824        8.21156424
  269      1       5.44290501       21.48384635        9.33328127
  270      1      16.37644546        3.65180439        9.46218769
  271      1       4.92115568       10.90071726       11.66464442
  272      1      21.79060192       12.00725308       20.42017213
  273      1      15.98841232       21.47345599       11.67845583
  274      1      27.66114224        9.84181770        0.11734637
  275      1      22.26386351        3.79765372        5.49098241
  276      1      17.80957260        7.27113277       19.18682643
  277      1       4.87761454       17.17295476       21.95349809
  278      1       8.93060395       22.88424257       10.55127039
  279      1      20.26068092       24.79331888       16.37731750
  280      1       9.44693145        8.95232519        6.84774516
  281      1      26.77058474        0.83754650       22.33384017
  282      1       2.03385831        5.00713494        4.29039648
  283      1      20.92204995        1.14290080       26.04207377
  284      1       2.58744073        5.83106927       17.66009845
  285      1      22.79203745        7.69380292       14.83423068
  286      1      15.50431521       12.59626416       11.20110468
  287      1       4.37040666       14.71887106       24.23444352
  288      1       1.42430717       10.31135848       24.28414871
  289      1      21.43993803       25.38288647       21.61912025
  290      1      10.38580147       11.25053911       21.54997252
  291      1       4.07312562        4.07523902       16.63648470
  292      1       2.88588563       20.64246566       21.72328134
  293      1      23.46511501       25.71615214       27.20300794
  294      1      20.69570806        1.02357093       19.45405937
  295      1       0.10086160       14.09351584       23.00413989
  296      1      17.88548042       17.57997884       21.24925376
  297      1      14.28493530       15.04406647        0.22786441
  298      1       0.53909293        8.44130412       23.31312845
  299      1       4.79890860       27.10779341        0.59604322
  300      1      19.39842009       25.39378342        8.36413756
  301      1      14.63423902       14.67038331        2.47931076
  302      1       7.21434368       11.07675062       25.57626336
  303      1      17.21464188        4.40364543        1.60331606
  304      1      19.96632640        7.16795105       22.63571366
  305      1      16.82003988       23.89146414       15.60097685
  306      1       3.97853533        9.96870914        1.93982219
  307      1       1.55524394       20.29492803        9.48430452
  308      1       9.48856288        0.85371973        7.09298620
  309      1      24.93463497        1.09028761        5.81288734
  310      1      20.17199302       16.97451913       18.21861623
  311      1       0.98173451        3.01075277       27.63874681
  312      1       3.09327033       10.99059698       22.75931432
  313      1      23.79630373       22.18946161       23.00584020
  314      1       1.36902864        1.64085409       18.76328273
  315      1      14.88883460       27.48728539       17.58316254
  316      1      13.23257755       21.44249508        5.42442475
  317      1      25.63817784       18.96712666       11.94704166
  318      1      24.62704358       18.45859653        9.78295493
  319      1       4.26732034       24.73338006       12.37875367
  320      1       7.77016992       24.30432750       13.63278956
  321      1      12.53938332       17.66566229       24.83881418
  322      1       2.04568075        9.34478134        5.52610443
  323      1      20.30112027       13.00722814       12.26647295
  324      1       9.91207160        0.71475146       19.95251093
  325      1      23.94961425       22.63355299        8.01446012
  326      1       8.34944924       26.43713575       12.86393074
  327      1      23.44987959        5.99608238       11.52223686
  328      1      14.79988977        7.75945619        5.25960546
  329      1      21.66841827       22.35006871        7.59863489
  330      1      23.75638794       16.28672722       13.93253349
  331      1       3.77654899        5.16197676       12.58869832
  332      1      22.58777872       18.78785964       21.82357230
  333      1       0.67129948        3.78291934       21.91085920
  334      1      11.00073453        2.22444228       14.28695527
  335      1      26.23033314       21.19007504       11.81576970
  336      1      19.63490579       20.46625802       11.18055621
  337      1      24.84752409        5.18188472       22.61902161
  338      1      19.89274470        4.35580064       11.02536001
  339      1      19.06309764       19.70162791        7.09639253
  340      1       8.78602851       13.05108759       13.39778810
  341      1      11.42317969       11.07296187        1.84809036
  342      1      18.72921817       19.18253873       27.05713354
  343      1      26.90876629       15.84733354       15.40953885
  344      1       3.53778119       25.85810082       23.97267168
  345      1      10.11338280       21.99405805       19.14511720
  346      1      24.08452532       10.93153439        0.85957154
  347      1      13.47753438        5.13856969       25.08525603
  348      1      25.87782709        8.62039163       13.47657715
  349      1      26.24506721        9.58884980        6.92993028
  350      1      18.22938966        1.12592102        7.28033263
  351      1      26.85661314       22.92732050        3.33485753
  352      1       8.09768977        0.33197634       26.42932462
  353      1      12.95221710        2.28269581        8.30035593
  354      1      19.75393672        8.98760687       25.47768276
  355      1      16.11627238       14.91819670       24.33935513
  356      1      19.73017720       12.45128425       10.01502041
  357      1      18.20932186       13.27957789       19.19362532
  358      1      22.63613176       18.81454302       25.63911449
  359      1      25.85743118       25.28834960        9.96986832
  360      1      15.09942242        4.42742857        0.69001808
  361      1      12.37111507        3.05311455       25.70395371
  362      1      10.16489978       20.42524658        2.72013806
  363      1      26.13336553       24.73769697       12.12528976
  364      1      16.17377470        1.17568828        2.10147736
  365      1      19.00112654        0.78075706       17.82075086
  366      1       6.60872880        6.74801371       23.99514987
  367      1       6.64738032       15.72938159       21.67465481
  368      1       8.39370186       25.91179025       27.57533179
  369      1      15.57027093       20.09263518       18.01483162
  370      1      10.84830456       27.50306196       23.70420704
  371      1      26.96211049        3.74781984        1.48158769
  372      1      23.16377439        5.73583542       17.99598027
  373      1      14.32790707       12.62249682        3.48562327
  374      1      16.79962427       15.46110281        2.98995543
  375      1       6.21728953       14.50859553       19.70729295
  376      1      26.14886223       20.48283022        6.43773605
  377      1       9.03956122        8.36401426       19.78125505
  378      1       3.92048762        7.31369596       13.62293097
  379      1      27.06274884       12.80004571        9.49988937
  380      1      24.74071719       19.95261611       18.41877438
  381      1      12.72992374       22.27560413        9.45709706
  382      1      13.04379721       23.69601298       21.27919672
  383      1      23.92498117       10.49825227        9.79927444
  384      1      18.12327503       11.37862506       20.78775590
  385      1      14.30686259       20.60482299       16.07763101
  386      1       5.84878072       19.68739217        6.19821598
  387      1      27.07333957       19.77418555        0.83731392
  388      1       4.14939814       17.77256262       19.85501694
  389      1       1.04376798       10.92513471       17.33303997
  390      1      11.11591455       22.31422386        1.72270180
  391      1       1.59538964       17.64191403       23.50077666
  392      1       3.77005108       27.29686308        7.14341830
  393      1      26.44785750       21.52442761       15.35773909
  394      1       7.37108969        0.41292024       14.26972543
  395      1       4.57412418       27.22937257        3.05847007
  396      1       5.49675981        3.48200858       13.11390468
  397      1       5.65213027       15.28032384        7.28920217
  398      1       6.30986811        0.03697743       20.91009669
  399      1      27.07927627       17.85601391       16.57067469
  400      1       9.02486809       18.35787485       10.88467458
  401      1       7.89480225        1.28459433       10.24031380
  402      1       1.78615205        4.14515114       13.21158414
  403      1       5.76247366        3.54489225        4.09842394
  404      1       7.38457596        8.21779057       13.10973784
  405      1       1.05292960        7.47689906        8.68559276
  406      1       2.70389765        9.66840303       16.11209433
  407      1      25.28363181        2.22699270       10.43511532
  408      1      19.31503008       26.71983169       10.36602558
  409      1      18.40384007        2.67781830       10.49198641
  410      1       7.55393918        5.37468463       17.92543097
  411      1      18.32881635       17.21863653       25.82143365
  412      1      11.86441214       10.88646059       18.35218881
  413      1       6.17283868       25.21498134        0.24968120
  414      1      14.51047534       21.30308044       23.84294713
  415      1       3.10267108       15.60846016       12.23507818
  416      1      12.21432595       14.25447676       27.08112330
  417      1      21.63509760        1.52813212       10.68218880
  418      1      22.91301149        0.00684090       12.94387147
  419      1      10.69099087       26.40803855       12.68991742
  420      1       6.58451047       10.53792777       21.73883202
  421      1       0.61574505       12.43044254        4.10925724
  422      1       7.74230501        9.74683575        3.37322881
  423      1      19.92175309       23.24334665        8.94715035
  424      1      20.71221088        8.45464104       10.68428517
  425      1      22.41397603       24.13397967        0.99592257
  426      1      17.26292608       20.76684011       26.00803713
  427      1      12.75889482       18.42388880       11.16554262
  428      1       3.37389284       25.04528388       14.76030843
  429      1       5.85858222       12.89591703        4.00156405
  430      1       7.36183513       13.05240904       26.86300517
  431      1      24.49097850       22.81688453       14.82053470
  432      1      22.71949226       22.91700313       11.29418959
  433      1       3.56017997        3.31576202       24.40464095
  434      1       0.61692043       22.79673510       16.42123046
  435      1      21.12276580       25.78268199        6.73017706
  436      1       8.44134332       24.92857798        9.40166343
  437      1      15.99039585       23.77695756        8.81530107
  438      1      12.97802104       25.40773903        1.12158586
  439      1      20.72834471       13.12691310       16.68117782
  440      1       3.80391992        7.92170444       17.16722092
  441      1      17.25530412       25.17405691        7.43077397
  442      1      17.26637451       15.76219150        8.70341560
  443      1      10.12759271        5.12062557        0.84574825
  444      1      15.32262419       14.90842632       11.93198272
  445      1      11.01229759        9.07910717       12.63389117
  446      1       4.39075274       22.31694260        3.82667143
  447      1       5.05674693        7.12392679        6.07702987
  448      1      24.89147618       19.01206396       24.81519053
  449      1       6.48659436       27.44131784        4.41172147
  450      1       9.41012717       27.37418409       17.74691271
  451      1      27.59330596       26.72584150        4.07257468
  452      1      19.61640024        9.32579514        0.07803321
  453      1       1.96728745       22.89134667        0.56784695
  454      1       5.91803139       10.84756251       19.48313639
  455      1       0.59623363       21.63538617        2.02962567
  456      1      17.32964890       11.96271764       17.34907057
  457      1      11.18951108       24.27551218       13.71320530
  458      1       4.61594784       15.25222759        0.66436406
  459      1      22.04193100        3.99157849       12.18736430
  460      1      20.14057270        5.58355018       15.39599760
  461      1      19.79589811       12.87389709        1.86587112
  462      1       4.37633923       11.45260955       15.75586366
  463      1       5.27635930       27.52263548       24.47829649
  464      1      13.22116974       15.09254449       13.15157502
  465      1      23.13948941       22.78508682       25.14162560
  466      1      17.09805371        9.27362436       11.97260648
  467      1      24.62574383       20.19192821        4.67940427
  468      1      21.85925613        2.65159340       22.70037653
  469      1       7.79603701       16.32798837        7.49077667
  470      1       5.34159147        6.94705257        3.70542471
  471      1      25.61163330       11.67685838       25.05299775
  472      1      22.88843323        1.64707593        4.86162014
  473      1      22.49600852       11.99340114       15.40938948
  474      1      27.58019822       21.94517723       22.98898933
  475      1      11.43934936       21.28004366       25.88587099
  476      1      15.72716057        2.27313972       20.26552532
  477      1       7.73805806       11.44496475       18.14177532
  478      1      22.78679420       12.31308999       27.21946518
  479      1      11.84820573        1.32104422        4.53998662
  480      1      12.23491810        4.59785798        8.43584824
  481      1      22.35568822       19.73212470        5.13343727
  482      1      14.56864003       23.00450099       15.50511392
  483      1       6.69817435       14.46213464       23.58853209
  484      1      17.88014363       19.15459369        1.63100903
  485      1      18.68224559       14.96934554        1.72484702
  486      1      24.67797259       25.00174911        6.03170606
  487      1      19.44288663       22.24979393        2.84568597
  488      1      16.13036936        4.82811731       11.67658844
  489      1       9.29626859       17.14435528       16.81308845
  490      1      12.20987425       15.79502320       15.22798700
  491      1      11.93387583       20.33023863       16.43012553
  492      1      27.22924239       15.74533269       12.99999399
  493      1       3.16378453       22.95087923       15.72101285
  494      1      19.11115669       26.12828984        2.11431984
  495      1      17.89714699       22.74441414       18.65775247
  496      1       0.08113265       16.91056333        8.44739862
  497      1      23.50238161       25.12849074       24.95325090
  498      1      20.18233825       27.12764320       24.66148052
  499      1      24.64943841       15.46988263       15.88634211
  500      1      18.81485094       13.34413539        6.30439188
  501      1       6.39996271       22.01584541        2.39996890
  502      1      18.16875133       14.05202823       23.45208938
  503      1       1.61536007       19.39395142       13.63158967
  504      1      22.37156428        0.37165181       15.26560020
  505      1      17.89587940        5.39330225       14.74541399
  506      1      16.05477079       10.06204396       18.00986686
  507      1      22.04797820        6.74883670        9.73899592
  508      1      12.83739077        9.38592276        2.64568189
  509      1      13.80345993       27.57013325       13.58206733
  510      1       3.04889182       15.56954225        4.16217428
  511      1       2.50431570       16.43461668       16.12713200
  512      1       8.65832455        8.08544449       23.78203303
  513      1       7.91433689       16.86182790       26.22075057
  514      1      17.87079146       26.60766529       22.14922193
  515      1      12.75592772        4.74528957        6.17031308
  516      1      13.19020398       23.73769550        4.66930487
  517      1       7.10138202       20.19807807       22.97701881
  518      1       1.36451001       10.16461039       12.54694541
  519      1       9.97498739        5.51581464       18.08089563
  520      1      18.62905509       25.44265062       25.41307150
  521      1      23.19580562        1.99257141        9.04600377
  522      1       3.94086403        5.50324472       10.21976384
  523      1       3.10336681       15.94105872       22.67262700
  524      1       4.10356668       12.22057632       13.52799251
  525      1      16.34639775       17.28577312       24.60613979
  526      1       2.53536935       26.58588486        0.10539448
  527      1      12.88650444       25.99100523       20.59599972
  528      1      20.83704442       18.38323709       14.36759659
  529      1       3.92437869       21.83244635       27.17468523
  530      1       4.69683050        3.40707414        6.19742793
  531      1      14.81489172        8.22460880       12.24970374
  532      1       7.30010811        7.75922450       18.16598711
  533      1       6.52649897        3.41139839        7.61138084
  534      1       4.85745273        8.18620263       24.33942989
  535      1      14.26366477        3.45587657       16.83702413
  536      1       3.26617580        3.70455786        0.52099777
  537      1      23.75253973        6.78619383        3.09396742
  538      1      18.96532579       21.19540447       17.07481914
  539      1      20.48518374       23.08088259       14.60405521
  540      1      23.71722049        3.73563299       19.35528461
  541      1       1.20617313       23.83504136       20.12832377
  542      1      12.91315723       23.01943292       23.58780596
  543      1      13.40558748       23.59270197       13.41232884
  544      1       2.62710271       25.66505336       20.00432609
  545      1       3.06368473        1.63663612        6.12965352
  546      1      24.68029184       11.71470474       22.85153209
  547      1       7.97232364       18.92758612       19.88690525
  548      1      10.90988494       19.23814050        9.90848926
  549      1       4.68200630       22.20311094       24.86937712
  550      1       3.42375102       12.58562260        6.71005474
  551      1      23.85398003        2.38484048       12.65760366
  552      1      17.59613328        6.41083401        2.56551027
  553      1      18.54935402        3.13904953       17.74385546
  554      1      17.56471802        1.83649717       25.21181929
  555      1       6.77750037        3.22679610       22.24379901
  556      1      18.99983133        1.66097295       27.31844856
  557      1      17.77140919        7.96314546        0.81819083
  558      1      23.14376255       23.27302953       19.28382007
  559      1      22.83962581       25.33873402        2.85991892
  560      1       0.10648015        7.40845870       20.12697000
  561      1       7.76903681        4.81256952        1.41577926
  562      1       0.68102850       23.72119004       12.62369222
  563      1      20.27177904       16.70600339        2.12925506
  564      1       7.52277437       11.50822676       12.07396910
  565      1      26.86104348       24.27675412        6.74003210
  566      1      26.69973050       13.08576133       19.74585357
  567      1       0.86470007        2.13932678        7.13573409
  568      1      17.37952630        3.28452557        7.21776298
  569      1      27.30897459       24.95692169       16.02890032
  570      1      20.91354970       22.04621046       25.61257127
  571      1      13.37464817       15.18300849        5.94221934
  572      1      17.08431298       20.47727295       13.57679329
  573      1      25.50703743        0.28845163       17.43066181
  574      1       2.60562717       26.98365896       22.10827952
  575      1       8.91039287       18.82302295       25.49788053
  576      1       6.27932298       24.45124246        2.40931002
  577      1      13.12444219        7.47352142       17.75428332
  578      1      14.60552031       19.65342988       21.84724458
  579      1      15.71400417        8.53794210       21.97608833
  580      1      27.16254254       21.57472882        9.69135976
  581      1      21.25408269       18.76662796       23.74572942
  582      1      23.30563733       23.80175952        4.53687308
  583      1       6.67476465       21.08170740       20.76112979
  584      1      24.43808595       15.95635353       10.10173872
  585      1      20.64062807        6.87386484       24.88014146
  586      1      14.65394489        2.00076954        9.79839264
  587      1      25.86781128        5.79825385       11.16647675
  588      1      13.57192204        9.79967278       15.17045565
  589      1      17.20706811        4.76062956       22.99195191
  590      1      21.40154346       20.14699406        7.25385523
  591      1      18.68380917       16.82521218       12.05947653
  592      1       4.91133061       14.37056010       12.97016109
  593      1      11.01749069       14.73275971        3.03750198
  594      1      20.91084580       20.32125158        3.24039750
  595      1      17.84230156        0.00291404        0.75321214
  596      1      25.40204536       26.82735170        4.66354528
  597      1       0.18922308        4.95721140       17.51882429
  598      1       7.39489378        4.33425334       14.15608911
  599      1       8.90549793        4.43374625       25.07703038
  600      1       7.49826026       14.17062664        2.94587111
  601      1      11.70306502       15.82521123        7.71879836
  602      1      12.04376608        1.88922930       23.66650624
  603      1      17.56387304        4.21999696       25.23049422
  604      1      13.73798045        6.27861401        9.25387423
  605      1       3.52779382       12.26048109       26.46025169
  606      1      17.59698902        1.63479880       12.40127223
  607      1      27.20014399       17.12208025       18.86588220
  608      1      27.64349854       26.67759936       25.08231652
  609      1      16.24976611        6.82969191       15.78794890
  610      1      25.85373432       26.43029507       21.71832647
  611      1       4.48378228       12.72836015       19.40665138
  612      1      19.49712790        9.17024113       16.42039220
  613      1      25.39886119       23.30739058       20.13527493
  614      1      11.53133159       26.56332126        4.80689849
  615      1      17.99808283       10.44432429        9.97589241
  616      1       2.07740195       19.46455470       25.11680430
  617      1      13.66294682       26.13844126       10.19081229
  618      1       9.03151110       20.79779995        7.33741041
  619      1       2.00012174       19.92286333        7.17753392
  620      1      10.74231615       19.88260386       22.18069560
  621      1       6.88934730       22.80692356       16.94593534
  622      1      11.91556740        9.49641547        7.31705411
  623      1       5.78308684        0.91047361       26.64406971
  624      1      16.85568875       15.92208514       13.34503411
  625      1      15.17654116       11.40076029        7.15980157
  626      1      22.65031227        3.91057939        7.81417088
  627      1       5.84057628        4.25857008        9.65459362
  628      1      15.99300370       16.66948013       20.22453998
  629      1      10.66406780       22.04186888       23.41090291
  630      1      16.15250425       17.68756834        2.22568336
  631      1      20.61902157       13.58366701       19.10051431
  632      1      24.37493373        6.40139045        0.76139154
  633      1       0.91201543       14.65913518       16.67730306
  634      1       1.27702072        2.84420816       24.03723309
  635      1      18.26619261       22.10338385       14.98621991
  636      1      16.91610638       26.46586265       26.67704313
  637      1       5.67238032       17.67421813       25.97385906
  638      1       9.03444434        8.84802312        0.00028060
  639      1      23.62291157       22.09875365        1.17695347
  640      1      27.50298183        3.93020967       25.59719993
  641      1      11.01705647        1.20481346        8.95440400
  642      1       9.12886611       15.02255292        4.40959212
  643      1       4.62770206       20.12284228       20.13515177
  644      1       1.36143675        2.68755638       11.16969068
  645      1      14.50509977       27.12739632       21.89493963
  646      1      19.32507158       13.76228065       25.54389185
  647      1      21.33091637       15.77911489       27.46650172
  648      1      12.32269934       15.25267785       24.84491113
  649      1      21.53496199       18.26617536       16.74163971
  650      1      20.10699923        6.54782207       19.09704129
  651      1      26.90794017        9.65980901       11.70660194
  652      1       5.31897945       13.92693446        9.24843082
  653      1      25.29136110       12.03478783       18.19178320
  654      1       8.07579231       20.88301627        3.62010747
  655      1       2.01219753       12.80568447        2.25495042
  656      1      11.84494468       12.98846398        5.90254391
  657      1       6.64174995       16.05002266        1.79321565
  658      1      26.21919705       20.37846134       26.29412842
  659      1       7.88757910       22.66497789       19.05420771
  660      1      16.25100322        7.57281265       26.68990259
  661      1      19.39196171       18.52884263        3.32357254
  662      1       0.93633498       16.25518118        0.73258530
  663      1       1.16887121       25.34509958       14.20770817
  664      1      17.12626209        9.82313071        2.42392755
  665      1      15.00093007       14.54947616       17.58728534
  666      1      11.98286704       12.62205401        3.53732422
  667      1      13.06558673       19.79816269       12.98419916
  668      1      21.14872646        9.09100497       22.10757597
  669      1      20.74249594        4.97836345        8.86093136
  670      1      24.06658671        7.54957100       19.21190161
  671      1       8.59945974       11.29636666        6.63265009
  672      1       7.56690505       13.62706043       15.28463028
  673      1      16.40260933       27.30582055        7.48687029
  674      1       1.57470850       12.81352927       10.24117895
  675      1      25.69079752       11.55041744       10.92449073
  676      1       8.27183064        4.93725003        7.13751013
  677      1      20.42040511        4.74909338       17.61003187
  678      1      10.43365869       18.62663987        0.93715648
  679      1       1.94429253       22.77063380       22.07316239
  680      1       3.37320679        2.44786583       19.76649977
  681      1      12.65556897        8.74217568        5.00215121
  682      1      19.93404306        1.97023804       21.62799787
  683      1      15.32945084       23.84847194        3.77296490
  684      1      23.29197178        9.74527702       15.91410309
  685      1       2.27025313        8.84528810        3.17670797
  686      1      22.44367618       10.17201967        2.58428833
  687      1       4.20898071       12.33169416       24.25411636
  688      1      20.72741565       26.28925651       12.37974233
  689      1       5.26904123        8.60064153       18.87376365
  690      1      16.92696142       15.40713361       18.51240270
  691      1      20.94752381       10.24390098        7.22670767
  692      1      15.61283128        5.30726708       26.23178362
  693      1      18.96020297       17.79227745        5.72310528
  694      1       1.90782979       25.51943191       25.70729719
  695      1      21.35442739        6.53589654        2.17300048
  696      1      23.53069115        8.16586148       27.13332123
  697      1      19.03842223        0.68915212        5.15039430
  698      1      20.96983993       11.78928236        3.65695312
  699      1      23.49465684        8.31716837       21.64427335
  700      1      21.17207878       27.60595617        5.15710142
  701      1      25.04936804        8.74925932        8.74133883
  702      1      10.73189989       23.10738707       21.05453527
  703      1      10.52116369        6.74037989       12.15687701
  704      1      22.31242778       21.65508573       15.01859017
  705      1      19.28499775       15.85684289       22.05588779
  706      1       0.25666432        3.14689797        3.60297352
  707      1      10.78561834       26.75716743       21.41672885
  708      1      15.11627307       19.34203507       14.32910104
  709      1      16.43036369       27.61091220       20.61649432
  710      1      23.32365894        4.46436422       25.62462438
  711      1      14.51886575       17.40688005        0.41876387
  712      1       8.70408125        0.56798293       24.14534856
  713      1       5.46252794       17.69473332       14.57670729
  714      1       2.42700686        6.48316462       19.92746396
  715      1      16.29687720       20.07729811        9.81051087
  716      1      10.17781225       18.99141717        6.24756838
  717      1       1.33944475       27.52147675       13.40663327
  718      1      11.32416720       10.72106914       25.42967548
  719      1      25.42006169       19.42429571       16.05752848
  720      1       1.99926200       20.01455411       18.02502790
  721      1      19.15083047        2.62528210        3.80979950
  722      1       3.67508101       10.12673144       27.27523093
  723      1      24.03992344        4.82043883        4.31054680
  724      1      12.29768508       11.85005940       27.36065577
  725      1      10.09070192       13.39110564       20.25110190
  726      1      23.32723134        8.84686730        4.30183870
  727      1      13.70944157        1.94533784        5.99652165
  728      1      23.42050283        7.29684906        7.92746205
  729      1       0.12390567       16.06488276       24.35408217
  730      1      26.73802130        2.70805461        5.64251720
  731      1       0.42630002       21.22681353       25.14940685
  732      1      26.28852082        4.40231962       19.31823129
  733      1       7.24767797       17.93643562       17.84223832
  734      1       1.48446677       11.55589095        6.00200648
  735      1      19.22798526        2.14228767       14.22805579
  736      1       7.72015473        1.84258587       20.41581201
  737      1      20.92033925       14.33233407        6.45643021
  738      1      12.77075641       11.63843256        7.58496009
  739      1      13.77025550       18.68481803        7.76589624
  740      1      23.17694583       14.50517158        2.86424635
  741      1      19.15156603       11.48586715       15.97153835
  742      1       8.24120710       13.62652455       18.81931882
  743      1      22.93418255        6.78928109       25.26076174
  744      1       7.06534511       21.81846008       24.67133024
  745      1       3.35827203       21.32707793       10.64189632
  746      1       0.97190647        0.50265726       23.51988425
  747      1       5.91294617        8.79038819        2.30955677
  748      1       5.73977398       17.23813237       10.77084966
  749      1      10.00207624       26.24114463        6.55647342
  750      1      18.47247559       19.40730807        9.38946059
  751      1       9.21247113        1.76993570        0.10914411
  752      1      22.66825441        2.62826129       15.76636761
  753      1       3.78035630       20.29674852       23.84876293
  754      1      15.75678354        3.37598582        5.45446316
  755      1       7.13587295       18.85503013        4.39802213
  756      1      23.13703026       17.06024382       27.11971200
  757      1       3.79872571       20.20804135       12.70347839
  758      1      25.60530231        9.63839044       26.45504834
  759      1       8.75206238        8.98293953        9.64010297
  760      1       0.11051788       17.96946910       12.26159523
  761      1       3.16182946       17.17957148       13.95896612
  762      1      11.03744580       19.64502941       14.36787467
  763      1       7.43687377        1.79497096        3.72060628
  764      1       2.59522529       15.04679445        1.95037315
  765      1       3.74973166       17.73685908        4.12705689
  766      1      19.17096115       18.71412811       19.58115707
  767      1      14.60209116       18.13693373       25.86282543
  768      1      18.60973694       23.03161452       20.87185324
  769      1      17.06815658       16.49487037        6.50752538
  770      1      20.71132345        8.83583884       18.44314176
  771      1      24.39928302       13.15364457       16.26294415
  772      1       8.70055405       23.41083275       24.16281047
  773      1      14.02672623        1.92023818       18.64778670
  774      1      20.15748480        2.68107191        1.56977995
  775      1      10.46691019        7.20389033        9.83056278
  776      1      20.61490949        5.54738652       21.15101546
  777      1      15.61574178        2.87502594       12.92836333
  778      1      13.26821102       11.80553097       11.27679925
  779      1      19.43639850        9.08544325        8.75099606
  780      1       7.41707511       26.90418173       16.24956766
  781      1       4.75702548        7.67006081       10.09407969
  782      1      24.56420508       26.82116607        2.52995901
  783      1       3.63564363        6.01230200        0.48070403
  784      1       3.71847607        5.12921299       22.98526066
  785      1      13.66503354       23.58128021       17.64137810
  786      1       7.35327998        7.13428251        6.99837697
  787      1       9.61457113       13.43352211        6.13614093
  788      1       4.96080251        1.94043204       23.26331851
  789      1      27.24838706        2.14937908       20.29340254
  790      1      22.08425683       15.37714364       10.02617866
  791      1      21.49652830       13.48978365        8.65618071
  792      1       6.48269559       12.04209883       23.58203734
  793      1      23.95608789       12.20923827        6.04850628
  794      1       6.13469769       26.17705429       19.22423834
  795      1      27.50396920       25.06611561        2.44641492
  796      1      25.02027018       15.17399100       12.27985679
  797      1      25.72146655       13.66759995       21.92411636
  798      1      15.14269153       25.42555405        2.15299683
  799      1       4.55128283       14.19340393        5.40111665
  800      1      10.11131713        6.22994309       24.02736842
  801      1      10.55637344        7.56239758        4.96634766
  802      1      26.44689233        6.49084769       16.42180574
  803      1      20.09620150       20.87237011       23.68199006
  804      1       9.50252434       22.92219474       12.90120367
  805      1      21.18583754       23.62012678        5.73328579
  806      1       1.78920716        9.24120478       26.44754395
  807      1      10.74146164        3.39782919       17.72050278
  808      1      21.08352529        3.69711069       14.32184532
  809      1      21.02073286       20.09679070       26.94897411
  810      1      27.57306859        6.27804379        4.95820486
  811      1       8.53083880       17.05017843       21.49937152
  812      1      15.88895681        5.97158449        8.24535101
  813      1      16.53274419       11.83856555       26.78713114
  814      1       8.32423438       14.73181046       25.22822604
  815      1       7.61101840       24.68784473       22.53156542
  816      1      26.41190522        7.87973345       24.83718006
  817      1      14.53697183       10.97354222        0.05104347
  818      1      11.67109377        3.03022871       12.19308451
  819      1      10.86806510       12.37864548       14.47213012
  820      1       1.66620214       18.21776152       19.55254345
  821      1      13.78999878       21.03884414        7.66336847
  822      1       0.74691449       11.33776471       19.84571955
  823      1       0.75558952        3.62808434        9.01495453
  824      1      10.27322275       14.73819821        0.82972637
  825      1      27.36838937       23.86570888        8.96461461
  826      1       6.14789900        5.19957934       15.98455818
  827      1       0.91237576        0.93305441        2.99605712
  828      1       5.89007553        5.62139622       22.07020405
  829      1       8.77823926        9.60363231       11.89906590
  830      1      26.63345777       10.92238616        3.45229373
  831      1      19.59034670       11.25090480        5.49517105
  832      1       2.21740501        5.40938840        8.54287762
  833      1      15.47783126        0.03888110       15.26964936
  834      1       4.14127629        0.92147844       21.36669543
  835      1      25.86237018       12.27161262        1.69280320
  836      1       8.37714537       24.64459186        5.71290657
  837      1       2.65520721        4.43541378       21.01258339
  838      1       8.04848553       24.58202540       15.90302767
  839      1      22.03524697       26.71782906       19.77895075
  840      1      22.26215870       23.20377142       21.46351423
  841      1      10.32414172       15.38950917       21.59535027
  842      1       5.24836341       18.83330890        0.40942258
  843      1      12.28509662       10.19108375       20.47561590
  844      1      24.97045773       15.67549526       26.60329498
  845      1      13.29299387       24.82835865       24.93851391
  846      1       2.21254674        0.50257243       11.21228082
  847      1      24.33344948       15.52187073       22.74552204
  848      1       5.89662355       23.18006420       12.79355487
  849      1      19.14957823        7.94687018       12.47794496
  850      1      17.50222972       21.46105999        1.79582390
  851      1      15.65944362        2.42776078       15.24285566
  852      1      16.72746839       10.69683942       24.65098668
  853      1      15.13159069       13.31453814        5.63963420
  854      1      11.67147901        2.33904039       19.63215102
  855      1      11.46718587       22.55496965       17.27917361
  856      1       1.88862073        8.46403172       14.15459169
  857      1      23.21805694        0.78484741       22.86759402
  858      1       6.87715175       21.03637846       15.41016025
  859      1       9.09592623        4.38537439        5.08597988
  860      1      10.47516646       24.35938968       15.97437538
  861      1       3.39070308        5.32288796        6.38321560
  862      1      14.27152864        1.50626367       23.22787204
  863      1      20.21833358       10.23886487       20.29691443
  864      1      18.54859388       12.38187439       13.78165342
  865      1      27.23202982       26.33525508       17.89572841
  866      1       6.74407556        8.19732874        0.19085690
  867      1      11.12116233        5.33013129        4.66372415
  868      1      22.77160134        0.30872962       27.22355153
  869      1      23.63120270       17.09989881       17.25224175
  870      1      20.98799264        4.69836729        0.61501712
  871      1       5.22593261        8.58312911       12.18071945
  872      1      25.01568803       10.06392326       21.29367424
  873      1      13.93823971       16.41255980       16.66681894
  874      1       3.42527417       16.99709638       10.18771292
  875      1       4.42050283       15.24221076       16.71970509
  876      1      21.83942817       13.81159652        0.99030448
  877      1       2.96148540        0.82658818       14.82733002
  878      1       3.12979137        6.62340824        2.80226362
  879      1      26.11614937       27.62331020        9.30055226
  880      1       6.77954622       11.31461955       15.97814830
  881      1      15.07691941       18.45287419        4.20219833
  882      1      22.95649462        9.27982234       18.17409252
  883      1      13.78668086        5.88766372        1.96656417
  884      1       5.25280351       26.27339350       10.84195982
  885      1       2.72454517        7.04762664       24.05402437
  886      1       0.38503429       27.64628522        7.89994960
  887      1       1.94413669       24.52946409        9.17683482
  888      1      18.80438094       17.16751813        9.74693207
  889      1      22.45589267       16.68450640        3.02516756
  890      1       1.50345114       15.53785302       26.27136404
  891      1      12.29261764       16.63803656       21.00510429
  892      1      13.62339547       21.83660660       11.80974816
  893      1      25.92710949       25.76856811        0.62049514
  894      1      12.17493400       27.22090207       27.43207473
  895      1       2.90746325       13.77609198        8.65108723
  896      1      19.46467962       26.24405700       14.52796173
  897      1       2.97017055        8.83631254        9.07506549
  898      1      22.83683191        4.41472680       21.46109291
  899      1      25.17234048       26.55738792       13.36630999
  900      1      17.53503441        7.23314426       22.94789489
  901      1      19.22949950       22.80155270       11.10635206
  902      1      17.10445438       25.94372508       14.49156919
  903      1      26.68577762        6.00128890        0.92437957
  904      1      17.78041654       14.35922730       14.77954648
  905      1      14.24288124        8.77822763       27.01255566
  906      1      17.13446208       26.91760005       18.37769980
  907      1      23.94936560       27.60269858       20.79809810
  908      1       0.61171113        2.78959418       16.75644765
  909      1      11.31610715       26.46939814       16.65587339
  910      1       9.61834632       26.12752468        2.11679705
  911      1      26.76351227        7.82837342       10.14975908
  912      1       6.02195974        2.46405104       10.95741334
  913      1      20.39968348        7.81889559       14.66155922
  914      1      22.09445641       26.46759795       23.58571704
  915      1       6.72664876       11.08161134        5.25804235
  916      1      24.62441457       22.17938813        3.33369778
  917      1      22.22577312       20.21522258        1.30433468
  918      1      26.50617480       10.07643783       17.36606466
  919      1       5.33151305        7.32166375       15.52881777
  920      1      11.31744176       12.12375220       23.52274388
  921      1       8.92989512       20.84549128       13.95123885
  922      1      13.57430895        5.23934567       22.62588501
  923      1      17.52332502        8.52150537       24.95751121
  924      1      17.28851042       24.52650766        5.15082497
  925      1      26.13067727       14.99239649        8.66535897
  926      1       5.75142933       18.76979467       12.53196270
  927      1      11.66343407       27.62865328       14.49282429
  928      1      16.42584650       12.01698033        9.08684695
  929      1      13.65837955        1.29467117       26.76740763
  930      1      17.76009383       19.28692947       17.68984113
  931      1      19.63199271        1.09806333        9.33647526
  932      1       3.51680369       13.10083604       17.25482696
  933      1      20.01540143        4.42268902        5.04537496
  934      1       2.23951907       26.90055502        9.10803411
  935      1      20.99799132       15.73003855       20.17898411
  936      1      15.42022059        7.36586724        3.10256088
  937      1      14.86532866       10.61946747        2.33445635
  938      1      22.40593865       11.95590421       12.95505769
  939      1      14.73371242       11.77176491       14.47676332
  940      1       8.16051708       22.21085439        5.59296360
  941      1      15.79331449       17.20503551       15.18727568
  942      1       5.73017031       21.97560534        5.78146961
  943      1      12.62994223        7.79264679       19.99527982
  944      1      12.22827268        2.21703723        2.38646039
  945      1      26.10311378        4.24578038        9.45854388
  946      1      15.45071795        0.53689598       25.33981958
  947      1      12.48949766        8.27515582        9.27700441
  948      1      15.55772728       22.30757024       18.75067050
  949      1      21.39815943        3.23458199       24.96860288
  950      1      25.29313521       20.70975607        8.55270735
  951      1      10.41063658       21.52754775        9.26227733
  952      1       8.67805451        9.50488200       21.80200341
  953      1      18.00832595        7.48913404        7.47260136
  954      1       9.97597353        2.73978060       10.38225002
  955      1      23.67627056        8.02692903       12.76082122
  956      1      21.04026659       15.20276447       25.18870307
  957      1      13.46915573       21.72916730       27.02240051
  958      1      13.62683848       24.42831529        8.60685704
  959      1      15.16219668       15.95833721        9.82866424
  960      1       9.61530171       13.28372783        9.76651165
  961      1      21.04173315       17.11109935        8.90049038
  962      1      26.91925554        2.36842289       12.23218370
  963      1       6.11410327       27.15684791        6.84521316
  964      1       8.66948081       14.58806878       11.60923120
  965      1       8.01753373       20.89902468       26.58149148
  966      1       7.37688270        8.89459746       15.53270955
  967      1      18.34625019       11.29131007        0.75816434
  968      1       4.51520917        7.48199579       20.74580495
  969      1      11.76879546       13.20318379       18.55536689
  970      1      26.35837455       21.25893755       19.54808898
  971      1       0.34437140        8.06734472        6.48755382
  972      1      18.33590998       11.69023399       23.12453051
  973      1       4.61972798       22.93895367       17.63199744
  974      1      11.25200241       10.04569124       14.72795968
  975      1      25.11830167        1.50155567       24.06669858
  976      1      20.85829261       23.90514550       12.41660812
  977      1      25.90348466       12.29658963       14.72048803
  978      1      17.17996802       27.23073399       11.19246612
  979      1       0.96838445        0.70293207        0.61030927
  980      1      14.18047146       11.60675495       20.73995838
  981      1      23.23435642       25.90144604        7.69650714
  982      1      15.17761848        3.47121320       22.28735604
  983      1      24.21879879       13.48765214       25.83942650
  984      1      12.86232361       17.42068133       18.69645993
  985      1      25.83551148        4.85725539        5.77371389
  986      1      14.85570729        5.76681632       17.40000840
  987      1      11.56340811       19.86669949        4.57648570
  988      1       3.64230050        3.32619834        2.92480042
  989      1       8.63118965       17.28801515        5.44593613
  990      1      25.79815188       13.59792358        6.52260627
  991      1       3.96447923       23.67784558       23.14924679
  992      1      17.70102629       16.95180634       16.79760325
  993      1      13.29988773       25.51960388        6.28538749
  994      1      22.34080140       13.33682199        4.75418158
  995      1      24.36478957       18.60448629       13.91464034
  996      1      19.24678273       25.27288838       20.89701976
  997      1      12.26181275        5.30911833       12.58735351
  998      1      14.29980021        2.21219481        1.11004579
  999      1      18.02975741        9.66697786        4.72095429
