run_id:  1014  total_energy:   -3029.331005708115

  1000 atoms
  1 atom types
  0.0   27.664  xlo xhi
  0.0   27.664  ylo yhi
  0.0   27.664  zlo zhi

 Atoms

    1      1       0.03273959       18.76248478        6.77612552
    2      1      14.70425847       18.59084933       19.58008208
    3      1      19.85927937       15.22400342       15.84951291
    4      1      17.43513630        8.36293425       17.15645310
    5      1      12.81748106       12.82825316       13.22637186
    6      1       8.85713134       16.66709886        0.75166778
    7      1      13.87722909       23.98753192       26.99006084
    8      1      24.68617223       22.88275154       12.51068652
    9      1       0.67779089       26.03903297        6.14680617
   10      1      26.78129120       27.53617258       27.08833580
   11      1      26.27089008       24.02779748       26.52944650
   12      1      24.71028157       12.79023915       12.54340682
   13      1      11.73349803       16.39544073       11.39582947
   14      1       8.78813963        2.83200412       23.40518700
   15      1      22.32639407       12.24058569       22.80741604
   16      1      16.00949380       21.59910959        8.01124636
   17      1      22.73548172       17.44463797        5.21022280
   18      1       5.66767120        9.40996482       26.33049213
   19      1      24.99145684       10.34158102        4.99985084
   20      1       8.67014061       12.95446712        1.29234522
   21      1      25.65397706       18.10562822        1.78249471
   22      1       2.96677328       23.66353757        7.25041085
   23      1       4.99837306        2.31010093       18.01894587
   24      1      10.42391171       14.38488549       23.84220480
   25      1       0.46601361       14.89310333       19.13844462
   26      1      27.45276998        9.46904948       21.25736038
   27      1      12.91051277       18.18346390        3.63276109
   28      1      22.33251901       19.11582054        9.29160956
   29      1      17.70296311        3.24189504       15.56653700
   30      1      27.31967952       22.38910849        5.61750945
   31      1       4.76792555       21.78544681       14.27453225
   32      1      16.70270514       18.83864163       22.82460007
   33      1      16.94211395        2.94092754        3.34740648
   34      1       9.65378585       16.73930237       12.34604503
   35      1       8.22435443        6.10726106       12.55205040
   36      1      15.75020490       27.19568438        3.60129995
   37      1      10.65860033        6.60951332       20.11885398
   38      1       7.08110875       26.92061887       23.03908398
   39      1      21.84819209        2.81956359       18.13675026
   40      1      10.73413332        0.53650528        1.31015998
   41      1      10.81982817        7.15333781       27.65608250
   42      1      10.57469959       25.35149124        8.69947133
   43      1       4.34049257        0.77108740       11.54272543
   44      1       8.94679608       18.79042906       23.15165094
   45      1       1.39695213       13.18618536       26.41852798
   46      1      23.81032532       11.04611876       19.45430391
   47      1      14.36882477        7.68402786       14.47435411
   48      1       6.64105154        5.00670960       25.72163051
   49      1      14.99530557       20.38476622       25.90919008
   50      1       9.75933721        4.84137867        8.99262013
   51      1       1.41650519       18.51816526        1.08454087
   52      1       7.38431026        2.41123058        1.31480362
   53      1      24.52792161       19.92989405       22.68829580
   54      1       0.14071975       21.46986768       13.45310536
   55      1       6.82602733       21.95430240       11.09891447
   56      1       4.66391165       24.46847982       19.61440364
   57      1       1.90650010       18.83463716        3.37013781
   58      1       5.74573887       11.75360559        9.33259338
   59      1      27.17668159       11.76204180        7.31149909
   60      1      23.35766892        4.42964440        0.20013119
   61      1       2.39335274        3.08187692       15.36439957
   62      1      18.79202001        0.73244273       23.31164902
   63      1       8.10789268       11.68516446        9.24949338
   64      1       5.40796556       27.57096785       17.42318966
   65      1      20.46395984       21.76759735       21.55888714
   66      1       7.09056642        5.13835436        3.63880258
   67      1      15.98012963       13.22041864       15.92991066
   68      1      24.47047599        7.25327453       23.55513408
   69      1       0.22277643       12.30175000       24.62068524
   70      1       7.18039729        2.98877577       18.47452376
   71      1      10.40264089       17.39192488       14.61656468
   72      1      13.75967507        9.73635591       17.34123906
   73      1      13.31066074       21.10335587        1.55504339
   74      1      24.64645098        3.54762180       15.53769432
   75      1      26.31741068        1.82579717       15.97727182
   76      1       2.58167371       10.68292152       10.68355708
   77      1       2.53933232       23.57356110       11.23400093
   78      1       7.65230180       20.01733267       12.19870863
   79      1       3.83860340       16.84573025        7.84089504
   80      1      23.71111023       26.54603503       16.70214230
   81      1       6.97886386        7.54841022        9.04614342
   82      1      18.82069099        4.01740556       21.36257769
   83      1      11.06070180       18.98257246       26.25021631
   84      1      14.75863683       27.40569875        5.81906956
   85      1       0.72666910       21.96928165       18.59833005
   86      1       5.68289003       17.98783339        2.79148726
   87      1      26.85038626       25.12345483       19.96760434
   88      1       9.54346049       15.00012886        8.25422146
   89      1      25.30094734        3.80773377       24.49296060
   90      1      24.29862517        5.93654640       16.07148752
   91      1      11.77787887        4.50431056        2.43684127
   92      1      25.68185019        8.48249114       13.24321624
   93      1      19.96132548        0.42965236       15.66421601
   94      1      16.13530772       10.27410647       20.32636843
   95      1      22.84388965       14.23477607       24.04775110
   96      1      17.75098442       20.82331237       23.70459593
   97      1      10.14694965       19.79010959       19.79228441
   98      1      12.97213184        9.47639085       11.21595743
   99      1      25.69547859        9.96265481       15.15666727
  100      1      27.55946370        6.24324803       26.30747166
  101      1      22.72029562       11.64531303        7.95010899
  102      1      15.03974447       26.04544184       23.99334867
  103      1       8.99645387       14.70441916       16.84756876
  104      1      18.94110976       22.90957736        5.01851910
  105      1      17.90818843       26.51473914        4.10093089
  106      1       2.93500884       25.47130023        5.82693616
  107      1       9.69186324       10.03819380       18.12899983
  108      1      11.21747465        5.36307785       22.12594919
  109      1      23.80053216        1.42313158        2.54834286
  110      1      16.05580924       24.52688544       27.66113695
  111      1      13.87964189       13.64231350       19.46307064
  112      1       1.77542520       15.70178321        7.50943772
  113      1      11.10152500        6.93741277       16.51974054
  114      1      12.87756664        7.75788523        0.96569920
  115      1      23.73165122       24.43989885        9.48008557
  116      1      17.17552472       14.60492880        5.19263926
  117      1      19.85556134        4.89736173       25.92487711
  118      1       8.65150572        2.38888281       14.73360435
  119      1      18.92578899       19.01871472       12.97690024
  120      1       8.89445494        2.13042500       17.07037108
  121      1      12.55519268        5.90167763       14.81414356
  122      1      18.14346284       15.16484143       27.05461741
  123      1      26.95725199       14.27955693        4.57776917
  124      1       5.82456857       19.24256110       16.50035141
  125      1      14.49941556        6.81685464       21.03272198
  126      1       2.67712644       12.35374506       20.96015414
  127      1      19.62763297        6.31761093        3.69252910
  128      1      11.12789272       13.94473839       16.25895241
  129      1      20.91769994       16.69771739        6.54268003
  130      1      14.96656613       22.21586143       20.94557047
  131      1       5.06736806       11.02950200        7.10425299
  132      1      14.89828397       17.22696107        6.21397810
  133      1      25.02051106       25.09485165       15.37394924
  134      1      16.88030926       22.74875802       22.47532889
  135      1       5.20738627       23.20958337        7.68712455
  136      1       6.09353096       20.99222583        0.36171720
  137      1       9.50820434        2.01846241        4.99542079
  138      1       3.04711050       19.45608675       27.34210686
  139      1       6.21538239       15.01032093       11.25639572
  140      1      13.00133270       15.83276516        3.84205134
  141      1       9.62179810       24.48543612       26.12694050
  142      1      26.65044042        0.69050745       13.89272075
  143      1       9.18323522        9.70376930       25.61344475
  144      1       3.89254185        9.03764410        6.87279585
  145      1      16.94662549       23.49930936       11.03348691
  146      1      21.61917807        8.62061886        0.98515372
  147      1       1.84419118       21.88515240        5.99349630
  148      1      11.40918815       26.90774425       10.28108777
  149      1      13.73700679        1.85334266       11.99660708
  150      1       7.34073325        1.19346104        7.93589217
  151      1       0.42677781       12.17814062        0.59525502
  152      1       0.11867544        9.17613707        2.38428108
  153      1      15.44488301       20.63270888        4.75411778
  154      1       7.81193631       25.62796804        3.67514772
  155      1      14.09712136       14.39847977       23.37300749
  156      1      24.80291320       17.59557200       19.25950753
  157      1       2.11984127       24.89118050        1.71795292
  158      1       8.72961448        8.29964412        5.44719385
  159      1       1.18842853       14.13781386       12.28685459
  160      1       2.14476290        6.91478069       26.39848574
  161      1       4.26306321       20.60189216       17.93503426
  162      1       5.55386968       16.36529158       18.49087701
  163      1       4.99944805        1.16784838       13.82153459
  164      1       0.63273617        6.34731835       14.34935791
  165      1      13.32852981       14.87112635        8.56160928
  166      1      19.43389384       23.58628747       26.70627406
  167      1       5.80303977       15.23406687       14.89261866
  168      1      11.05937419       18.63356568       17.92651297
  169      1      14.64890602       18.28367110        9.85769393
  170      1      26.62933943        7.27251108        2.97758393
  171      1      11.51901286       24.50783764        2.77757064
  172      1      20.62191620       15.35396344       12.04682953
  173      1       7.32254837       17.97049607        9.33367340
  174      1       1.78237017       14.48129565       21.34122902
  175      1      16.32600171        9.19130633        6.27540973
  176      1       2.26298903       21.13258466        3.73302437
  177      1      18.09400264       13.57918387        8.52240020
  178      1      25.74388188       23.30278912       22.61418809
  179      1      11.49847372       18.24701281        8.06741696
  180      1      25.56883384       18.07616002        4.06373360
  181      1       8.27337021       25.23326713       19.00759862
  182      1      22.65383887       20.97906401       18.75018735
  183      1      15.39917887       21.76286802        2.75826101
  184      1      21.14636621       26.88101761        2.92334470
  185      1      24.96579213        1.49456568       19.46356175
  186      1      21.87847380        8.37141798        6.07329690
  187      1       0.85963379       23.34405008       26.26578221
  188      1      12.59824404       18.44222090       22.54769953
  189      1      17.45628135       22.59670765       27.40122887
  190      1      14.91090237        5.53888309        6.08662958
  191      1      14.17674835       25.60047451       12.39792911
  192      1      10.82222470        3.09797495       22.00894604
  193      1      25.76210788       25.25585416       24.07834487
  194      1      21.81359975        0.97980525        1.58754441
  195      1      10.27746181        3.55324947       26.74190491
  196      1      18.03817885       24.72651903       17.53126871
  197      1      21.34182951       20.59036776       16.93994922
  198      1      16.43815421       25.41847639       12.35495250
  199      1       3.36743680       26.90949621       16.47087884
  200      1       1.19399113       18.08649465       10.22592537
  201      1       4.01965928       15.95562181       26.22448639
  202      1      16.06048259        5.83194024       19.39517498
  203      1      21.94328176       20.53328797       11.21759993
  204      1       3.77662953       24.85774849        3.50703998
  205      1      18.33201624        5.69497944       12.34911267
  206      1       9.16367857       10.59930794        1.88188737
  207      1      26.82636532        5.52977255       21.33756517
  208      1      26.41095848        7.95511981       18.30504012
  209      1      24.95461898        4.05566783       13.31319401
  210      1      12.94892278        9.00021866       25.08904944
  211      1       4.73952136        9.29750547       22.38619888
  212      1      24.81058031       22.19656069       26.75207055
  213      1       0.18825531       17.87115567        4.70371796
  214      1      23.21490924       16.69250795       20.94732640
  215      1      13.17977131       25.92920242       18.13402061
  216      1      14.17116441       15.29655633       21.15640503
  217      1      26.27983853       15.98449894        0.98258563
  218      1       4.89559437        3.19455046       26.44180548
  219      1       3.79911805       18.63275822        6.38731737
  220      1      20.50565011       10.73392421       23.75945092
  221      1       9.92356426       22.36097427       27.25385288
  222      1      11.39361179       26.01355746       25.48209275
  223      1       1.09611041       12.22509228       13.72877228
  224      1       9.77866156        8.88363807       16.10483373
  225      1      17.27641883        3.81405175       19.59295106
  226      1      16.54528606       11.42433673       12.89238348
  227      1      25.54891757       14.41509380        2.58620380
  228      1       6.16916542        5.98661476        0.13917646
  229      1      13.67106610       12.08617349       22.96969415
  230      1      26.74459818       20.19552692       21.63032323
  231      1       7.60490966        5.62988814       10.27767079
  232      1      22.42136827       19.82265670       13.50120821
  233      1       4.41895749       12.18442073        2.35962756
  234      1       1.15592173       19.02873882       21.64914736
  235      1      21.38360236       16.09837362       14.08794465
  236      1       1.78816480       27.04376707       18.27666128
  237      1      17.06111704       24.93191107       23.60755458
  238      1      20.06974999       24.02177843        1.28365498
  239      1      14.21580602        6.10259623       11.44174022
  240      1      22.23097514       25.17997841       17.97852508
  241      1      14.68397060        9.98530057       23.65948666
  242      1      19.51036542        7.84742352        5.36503111
  243      1       5.44323140       18.69656917       23.74751956
  244      1      24.87066763        2.75374998        0.87397875
  245      1      12.14239380       12.84225587        9.41520111
  246      1       6.86085254       24.98360461        7.52841135
  247      1      18.99679426        5.05964985        7.10352903
  248      1      12.16547452        3.67503783       15.83582682
  249      1      22.43781760        9.88402656       11.51299926
  250      1       1.36624070       18.87862808       16.12653293
  251      1      16.08501188       14.17413418       26.57743646
  252      1       3.02844072        1.15663638        3.78400992
  253      1       5.20666591       13.12728743        0.29052286
  254      1       5.75530709       23.46822192       21.53501970
  255      1      11.84693727        6.85685542       25.47118753
  256      1       0.99741222       15.76469526        5.24079235
  257      1      24.48495368        0.24912573        7.68110513
  258      1      24.62999405        5.20329436        7.65778659
  259      1      15.46047705       27.57607499        9.59098434
  260      1      23.39787798       18.16299804        1.42662214
  261      1      21.18298972       19.95109620       20.31169957
  262      1      25.56173915       16.71837443       24.54801518
  263      1      24.92774679        1.25343154       26.63404532
  264      1      19.96233081       16.89442645       24.07056172
  265      1      12.82816625       18.73546127        1.44582190
  266      1      17.48482286       21.22442830        6.11809594
  267      1       7.40430225       26.67899519       10.77488318
  268      1       9.36587581       24.98463366       21.05607655
  269      1       6.90994317       19.96186708        8.25923820
  270      1       5.39192329       21.53359635        9.36552644
  271      1      16.41276189        3.66410496        9.46214025
  272      1       4.82473831       10.95187886       11.66776863
  273      1      21.84425917       12.01974985       20.38179803
  274      1      15.97031155       21.49005459       11.68095779
  275      1       0.04300224        9.86254950        0.12138962
  276      1      22.26477012        3.84839766        5.31600463
  277      1      17.91037804        7.25393438       19.14023548
  278      1       4.90299984       17.16075604       21.98597776
  279      1       8.86348356       22.96861438       10.56795128
  280      1      20.24014562       24.76577921       16.41657217
  281      1       9.63914499        9.65013900        7.12284358
  282      1      26.77623863        0.83762018       22.36098330
  283      1       2.02602186        5.00268898        4.26545873
  284      1      20.91600964        1.14449215       26.02174905
  285      1       2.66489720        5.85558608       17.71304200
  286      1      22.77716514        7.71851640       14.84187295
  287      1      15.49603379       12.62316051       11.13825884
  288      1       4.41727313       14.70683745       24.28520741
  289      1       1.48055803       10.31396905       24.34156085
  290      1      21.43388631       25.37762183       21.62446194
  291      1      10.41063909       11.25145984       21.55003502
  292      1       4.12875982        4.10360280       16.67906401
  293      1       2.89831695       20.63338422       21.74679814
  294      1      23.46462041       25.70218026       27.17398710
  295      1      20.68927178        1.04730614       19.45270242
  296      1       0.12856392       14.09826526       23.03932217
  297      1      17.88726286       17.56088822       21.23654882
  298      1      14.29161012       15.04509400        0.24201705
  299      1       0.58453481        8.45463068       23.36777051
  300      1       4.80744168       27.08260976        0.60341487
  301      1      19.43924409       25.42513307        8.40267692
  302      1      14.66006778       14.67800595        2.49234007
  303      1       7.26950240       11.06939631       25.66279458
  304      1      17.24180708        4.36689495        1.54959978
  305      1      19.98585181        7.18761168       22.59774073
  306      1      16.79365182       23.87866823       15.62002436
  307      1       4.11477534        9.93966401        2.04753022
  308      1       1.52351971       20.32038273        9.51001627
  309      1       9.46156123        0.84553559        7.08782557
  310      1      25.04051000        1.08470738        5.64984499
  311      1      20.17795764       16.93257709       18.19549283
  312      1       0.98344086        3.00444701       27.62706045
  313      1       3.15841359       10.99153172       22.83907504
  314      1      23.79471220       22.17383874       23.00746881
  315      1       1.38961594        1.63747458       18.84254260
  316      1      14.87273816       27.49815781       17.58049118
  317      1      13.23223659       21.43527346        5.44151757
  318      1      25.61903044       18.97896123       11.95569792
  319      1      24.61694414       18.47274120        9.78850812
  320      1       4.18135885       24.80769958       12.39508381
  321      1       7.72114164       24.36172316       13.64414811
  322      1      12.54694844       17.65397927       24.84603199
  323      1       2.06316393        9.38114685        5.50022324
  324      1      20.29414936       13.02375631       12.24830547
  325      1       9.92003811        0.72688123       19.94725535
  326      1      23.97541090       22.66297739        7.97083083
  327      1       8.27448180       26.48676814       12.85014754
  328      1      23.36610455        6.10946904       11.34413561
  329      1      14.81943486        7.70048090        5.21631317
  330      1      21.70377993       22.38143913        7.58065463
  331      1      23.77433839       16.25579672       13.93138978
  332      1       3.80818664        5.19856072       12.61777340
  333      1      22.59462732       18.77609192       21.82217486
  334      1       0.69377944        3.79750048       21.94139065
  335      1      10.98971054        2.25297479       14.26984066
  336      1      26.19643713       21.20861378       11.83050674
  337      1      19.61254989       20.45281530       11.18710754
  338      1      24.86455031        5.20454907       22.63133378
  339      1      20.03602359        4.37318635       11.10102100
  340      1      19.06249430       19.72569325        7.10438786
  341      1       8.73347903       13.07763179       13.42536222
  342      1      11.45633008       11.06318587        1.93026907
  343      1      18.73268597       19.17867186       27.05076894
  344      1      27.03061816       15.72528564       15.41739602
  345      1       3.56136021       25.85357620       23.98859108
  346      1      10.10268054       21.99919041       19.15486825
  347      1      24.10324045       10.95072488        0.83344274
  348      1      13.48414525        5.13825710       25.07586305
  349      1      26.28884461        6.14457460       13.11266917
  350      1      26.23323080        9.63464789        6.81730888
  351      1      18.21880731        1.10927195        7.27122399
  352      1      26.85634667       22.92220363        3.33416693
  353      1       8.12141827        0.29822767       26.41340973
  354      1      12.93308006        2.31053495        8.26999065
  355      1      19.76121309        9.00012438       25.44117414
  356      1      16.12022129       14.91589453       24.32549431
  357      1      19.73283090       12.46358422        9.99766576
  358      1      18.23345575       13.28208986       19.14605002
  359      1      22.64152049       18.81636902       25.63366670
  360      1      25.83553753       25.31300008       10.00210594
  361      1      15.11631904        4.39110632        0.65322661
  362      1      12.38110866        3.04757715       25.69821935
  363      1      10.16934578       20.40917762        2.76106272
  364      1      26.07392059       24.75570681       12.16932117
  365      1      16.17909885        1.15277699        2.08823967
  366      1      18.96682265        0.77638697       17.84574423
  367      1       6.64522591        6.75773677       24.03793941
  368      1       6.67134414       15.71190899       21.70888251
  369      1       8.40423433       25.88357274       27.57362487
  370      1      15.57049958       20.08235681       18.02134092
  371      1      10.86105527       27.49749439       23.69584390
  372      1      26.96385264        3.74737644        1.46450869
  373      1      23.17377540        5.86033275       18.15653967
  374      1      14.37248743       12.61768197        3.46543914
  375      1      16.82823347       15.47697979        2.96631897
  376      1       6.22976789       14.49688654       19.73442079
  377      1      26.14028775       20.49995596        6.43999552
  378      1       9.07103063        8.38344614       19.78940954
  379      1       4.04299403        7.37847758       13.58499506
  380      1      27.02888662       12.80624947        9.46172104
  381      1      24.74393126       19.90865458       18.42769895
  382      1      12.71518276       22.32249421        9.45635276
  383      1      13.04315874       23.69283769       21.27947173
  384      1      23.85678740       10.52366331        9.69383355
  385      1      18.15793314       11.38121258       20.74502574
  386      1      14.29796640       20.61192166       16.09588646
  387      1       5.81885589       19.70977789        6.23706356
  388      1      27.08408397       19.77092577        0.83995756
  389      1       4.16777534       17.77025631       19.88705710
  390      1       1.22240933       10.91691055       17.58896851
  391      1      11.12250584       22.29003734        1.74252595
  392      1       1.61985387       17.63639624       23.52717826
  393      1       3.77098009       27.27930763        7.16305397
  394      1      26.42163534       21.50221976       15.38567868
  395      1       7.32618535        0.45798915       14.27267324
  396      1       4.56210798       27.18411809        3.05750222
  397      1       5.50591386        3.53128447       13.12979640
  398      1       5.60701435       15.33973943        7.36781519
  399      1       6.32359284        0.04489055       20.92258557
  400      1      27.08312645       17.78323335       16.58025219
  401      1       8.94963859       18.51731667       10.94390843
  402      1       7.83437340        1.30690502       10.24682270
  403      1       1.79730468        4.35508117       13.42133793
  404      1       5.69109501        3.33011582        4.08281447
  405      1       7.42194120        8.28707102       13.00771560
  406      1       1.04855160        7.51899205        8.58533144
  407      1       2.72410728        9.64774035       16.12535363
  408      1      25.21998699        2.01015962       10.45957010
  409      1      19.25242144       26.71829902       10.42802026
  410      1      18.46720874        2.72595193       10.55028110
  411      1       7.58705138        5.39521082       17.92812133
  412      1      18.33357341       17.21751149       25.80807320
  413      1      11.86981736       10.90024618       18.32054444
  414      1       6.18020504       25.19022080        0.24327503
  415      1      14.50603997       21.28289093       23.84552760
  416      1       3.00944452       15.61804802       12.32579191
  417      1      12.21496383       14.24843156       27.11943502
  418      1      21.83096156        1.02233444        9.91366887
  419      1      22.82014971       27.43686673       13.11415295
  420      1      10.63297634       26.44963347       12.67481743
  421      1       6.62772541       10.55515166       21.77563994
  422      1       0.62366916       12.45887814        4.09496912
  423      1       7.75238426        9.79150537        3.82081924
  424      1      20.26040704       23.40893971        9.15313270
  425      1      20.64963537        8.46392382       10.61174600
  426      1      22.40978973       24.12647891        0.97155457
  427      1      17.26403648       20.76010874       26.00402787
  428      1      12.72909901       18.52824928       11.20924427
  429      1       3.30630383       25.10213587       14.78172204
  430      1       5.85906992       13.00799840        4.06374446
  431      1       7.43532105       13.03004994       26.97106383
  432      1      24.46557711       22.79291743       14.84246430
  433      1      22.65857151       22.93039170       11.26657199
  434      1       3.58254602        3.31608798       24.42643213
  435      1       0.59919538       22.79617960       16.44233898
  436      1      21.14991913       25.82479770        6.71999880
  437      1       8.34959142       24.99800428        9.42152843
  438      1      15.98984745       23.78063056        8.81708610
  439      1      12.98163123       25.38818536        1.12372445
  440      1      20.80058394       13.10883045       16.63238830
  441      1       3.87360220        7.93072496       17.16643249
  442      1      17.28974070       25.15460263        7.45306562
  443      1      17.28206096       15.78841232        8.69288437
  444      1      10.11561945        5.08356092        0.85271313
  445      1      15.22685055       14.93390275       11.82940464
  446      1      11.01517248        9.10342291       12.54014489
  447      1       4.38221156       22.30566935        3.83105078
  448      1       4.93114206        7.04683479        6.04188606
  449      1      24.89961448       19.00993048       24.81718671
  450      1       6.47427693       27.36817903        4.40143207
  451      1       9.40286707       27.40158896       17.74310724
  452      1      27.62441922       26.69225676        4.04727421
  453      1      19.61875640        9.33179911        0.03937381
  454      1       1.97629861       22.87442437        0.56545363
  455      1       5.93584971       10.85758920       19.51000305
  456      1       0.59813784       21.63261357        2.03223756
  457      1      17.34495652       11.97019500       17.30144500
  458      1      11.15042352       24.31904679       13.71319353
  459      1       4.66249976       15.25105721        0.71546764
  460      1      22.25883306        3.99408099       12.30281201
  461      1      20.14892300        5.55612122       15.40623341
  462      1      19.79982669       12.88287632        1.82925272
  463      1       4.28303503       11.47240884       15.70521719
  464      1       5.30175661       27.52045642       24.50687873
  465      1      13.07972781       15.12570695       12.92581153
  466      1      23.13947772       22.77206284       25.13846692
  467      1      17.08334879        9.29069455       11.93844046
  468      1      24.62304445       20.20383478        4.67838820
  469      1      21.85489412        2.65322706       22.70505549
  470      1       7.73480013       16.41692008        7.62267003
  471      1       5.35598043        6.87862083        3.72500086
  472      1      25.64947944       11.69098610       25.06505666
  473      1      22.92065851        1.66509430        4.80087306
  474      1      22.61875555       11.99832029       15.36814072
  475      1      27.58684910       21.92873537       22.99958466
  476      1      11.45066654       21.26575858       25.89510261
  477      1      15.70925626        2.28406441       20.26442951
  478      1       7.72135784       11.45086458       18.11667385
  479      1      22.80057064       12.32495007       27.19402349
  480      1      11.83520460        1.29103650        4.53863296
  481      1      12.19994292        4.60514130        8.36492872
  482      1      22.35191633       19.74821224        5.13655773
  483      1      14.54171226       23.01176753       15.51725579
  484      1       6.74614704       14.45334733       23.63971385
  485      1      17.88691723       19.16105792        1.62512604
  486      1      18.69600437       14.98091852        1.69541514
  487      1      24.70030676       24.98214731        5.96359155
  488      1      19.44384415       22.25379518        2.84393578
  489      1      16.14502587        4.85044107       11.66387767
  490      1       9.29437622       17.15459727       16.83075040
  491      1      12.20287825       15.79796961       15.12006178
  492      1      11.92520420       20.35280819       16.45568646
  493      1      27.20347152       15.74628436       12.99426156
  494      1       3.13527700       22.99868274       15.74664639
  495      1      19.11257313       26.12459644        2.10819351
  496      1      17.88908732       22.72443099       18.67053147
  497      1       0.03955003       16.94277006        8.46336123
  498      1      23.50456126       25.11249877       24.93489361
  499      1      20.17393377       27.12364855       24.65098427
  500      1      24.74107122       15.39871942       15.85028201
  501      1      18.85733267       13.36366142        6.28523595
  502      1       6.39986428       21.99220368        2.41429710
  503      1      18.17496930       14.04935164       23.43490501
  504      1       1.58738720       19.40922459       13.65763707
  505      1      22.35009398        0.32889285       15.37220563
  506      1      17.90780808        5.39441441       14.72844638
  507      1      16.07319126       10.06980171       17.97462012
  508      1      21.96121492        6.77808836        9.59807236
  509      1      12.90455793        9.38100072        2.67091044
  510      1      13.77584742       27.59272069       13.56975246
  511      1       3.03569409       15.60227421        4.19233998
  512      1       2.50735982       16.45996617       16.26874537
  513      1       8.69014361        8.10333479       23.83145281
  514      1       7.94706318       16.84527251       26.26284564
  515      1      17.86538053       26.60598754       22.13962051
  516      1      12.69650883        4.76510146        6.09290574
  517      1      13.19556460       23.72803766        4.67763837
  518      1       7.11815476       20.18611302       22.99592312
  519      1       1.23111357       10.11127749       12.53356214
  520      1       9.99991174        5.54008289       18.07003265
  521      1      18.62548072       25.43630109       25.40401908
  522      1      23.17352213        1.93261960        8.41624191
  523      1       3.91047225        5.54343924       10.21646728
  524      1       3.14125965       15.93446157       22.72768602
  525      1       3.78475293       12.21445844       13.50750628
  526      1      16.34802569       17.28170693       24.59965919
  527      1       2.54538401       26.57086142        0.10055277
  528      1      12.88409393       25.99038280       20.59252078
  529      1      20.83410492       18.36654832       14.37255365
  530      1       3.94196951       21.81902399       27.18750702
  531      1       4.65058207        3.33641343        6.19260576
  532      1      14.80215309        8.24458544       12.19190135
  533      1       7.33225560        7.77536469       18.17792129
  534      1       6.47020214        3.35239745        7.60626381
  535      1       4.90905585        8.19828690       24.41160024
  536      1      14.26427673        3.47949370       16.82224277
  537      1       3.26242906        3.69664349        0.51891363
  538      1      23.74865288        6.80615143        3.02723870
  539      1      18.96003976       21.16535370       17.09551533
  540      1      20.46682012       23.04682473       14.65706003
  541      1      23.68326550        3.78712949       19.38566180
  542      1       1.21496216       23.82814314       20.15708155
  543      1      12.91734583       23.00697635       23.58853374
  544      1      13.37199908       23.62347863       13.42355727
  545      1       2.63403659       25.66326008       20.03747920
  546      1       3.02913984        1.59276499        6.14659187
  547      1      24.71396860       11.73902463       22.86366162
  548      1       7.98170800       18.92626908       19.90846647
  549      1      10.85625925       19.45331927        9.98216276
  550      1       4.70084701       22.19504480       24.88522799
  551      1       3.39332166       12.63238851        6.73932392
  552      1      23.07263633        1.77013048       11.76272442
  553      1      17.61245896        6.38480937        2.49631870
  554      1      18.45963051        3.10937361       17.73334497
  555      1      17.56412880        1.83886058       25.19662500
  556      1       6.79321153        3.23388038       22.26010983
  557      1      18.99367310        1.65519915       27.29858033
  558      1      17.77390230        7.96323204        0.78324790
  559      1      23.13986203       23.24586047       19.29930535
  560      1      22.83688589       25.33832981        2.82867339
  561      1       0.17332111        7.41779290       20.16573184
  562      1       7.73667964        4.76131485        1.45275734
  563      1       0.61985930       23.75661975       12.67000950
  564      1      20.28068049       16.72034932        2.11093488
  565      1       7.48884647       11.53928837       12.10724301
  566      1      26.86536334       24.28903543        6.74532356
  567      1      26.76508024       13.07618466       19.77788996
  568      1       0.86049562        2.15533399        7.18976585
  569      1      17.36756219        3.26841194        7.18944293
  570      1      27.29322877       24.95048170       16.08314298
  571      1      20.91155673       22.04050727       25.60676506
  572      1      13.67911688       14.90027029        6.12323381
  573      1      17.07103487       20.48096690       13.57777145
  574      1      25.51220314        0.25507395       17.54909911
  575      1       2.62654568       26.98635118       22.13289724
  576      1       8.92938006       18.80753341       25.51927748
  577      1       6.28167369       24.41876629        2.40161866
  578      1      13.13940201        7.49589634       17.71768802
  579      1      14.60852692       19.63896632       21.83873737
  580      1      15.73067677        8.55504274       21.95095127
  581      1      27.13588818       21.60206678        9.71049245
  582      1      21.25947360       18.76102229       23.74167690
  583      1      23.29133499       23.79662481        4.50222161
  584      1       6.68157867       21.07065435       20.77880456
  585      1      24.42185759       15.97197660       10.09400680
  586      1      20.65014897        6.88847333       24.84646900
  587      1      14.64860715        2.03470471        9.77463108
  588      1      25.74930930        6.02357878       10.76142225
  589      1      13.56028866        9.82819998       15.11816076
  590      1      17.21465772        4.77379116       22.97135615
  591      1      21.39876190       20.17426869        7.26308503
  592      1      18.65704582       16.82220311       12.05333906
  593      1       4.78535700       14.34235188       13.02077669
  594      1      11.06546975       14.76499964        3.13203876
  595      1      20.91590002       20.33114486        3.23481696
  596      1      17.84768234       27.65736634        0.74049654
  597      1      25.44443259       26.79038187        4.56686371
  598      1       0.25118721        4.94945349       17.65474342
  599      1       7.42412186        4.38597569       14.13116461
  600      1       8.92043754        4.43286747       25.08419647
  601      1       7.55553298       14.22437356        3.05492313
  602      1      11.44592952       16.13309351        8.99015946
  603      1      12.05103060        1.88861089       23.65994974
  604      1      17.57121415        4.22436557       25.20552170
  605      1      13.72366591        6.26485304        9.20648485
  606      1       3.59381345       12.24856047       26.53288811
  607      1      17.58942849        1.65867588       12.41178211
  608      1      27.23140456       17.09020796       18.88503689
  609      1      27.65596221       26.65779670       25.08062804
  610      1      16.26582873        6.85311273       15.75231865
  611      1      25.85628299       26.43202604       21.74336080
  612      1       4.47603320       12.72588955       19.43255073
  613      1      19.52640349        9.18688206       16.40391962
  614      1      25.39748869       23.28608423       20.14654108
  615      1      11.51735733       26.53899444        4.82593325
  616      1      17.98821191       10.46851408        9.94442920
  617      1       2.09544156       19.45818221       25.13548803
  618      1      13.63581869       26.16154395       10.18622521
  619      1       8.98892275       20.82926946        7.36879026
  620      1       1.97551057       19.94694845        7.20389082
  621      1      10.75159620       19.87379072       22.19061781
  622      1       6.86381095       22.83583760       16.96228381
  623      1      11.96758586        9.48777555        7.17545407
  624      1       5.81164787        0.92377404       26.69790011
  625      1      16.78978642       15.91140938       13.28766887
  626      1      15.26654884       11.34785967        7.09992564
  627      1      22.62432069        3.99989430        7.58308340
  628      1       5.80167816        4.28356630        9.63080698
  629      1      15.99958494       16.65420967       20.20178851
  630      1      10.67226829       22.03280884       23.41536309
  631      1      16.16278619       17.69956621        2.22552328
  632      1      20.65215557       13.58150258       19.05718837
  633      1      24.38767463        6.41383930        0.72302013
  634      1       1.11563545       14.49789395       16.84620879
  635      1       1.29711534        2.84271586       24.05619145
  636      1      18.24254940       22.08442081       15.01368657
  637      1      16.91604959       26.45681992       26.67019094
  638      1       5.70471074       17.66354246       26.00503656
  639      1       9.09028038        8.84590512        0.13749094
  640      1      23.62296752       22.09579301        1.16366569
  641      1      27.51524246        3.94232846       25.59698150
  642      1      10.99155405        1.22182714        8.94248768
  643      1       9.18893098       15.12111350        4.53286560
  644      1       4.63264087       20.12095653       20.15375496
  645      1       0.97634227        2.95130484       11.48422007
  646      1      14.50017084       27.12753152       21.89266007
  647      1      19.33052789       13.76100798       25.52588377
  648      1      21.34004824       15.78758739       27.44367700
  649      1      12.33606217       15.24080791       24.86423736
  650      1      21.56892529       18.21481256       16.74715161
  651      1      20.25573228        6.50491702       19.04429900
  652      1      26.81462041        9.60039503       11.57734968
  653      1       5.20405054       14.01580658        9.31471061
  654      1      25.42052204       12.04009261       18.12751836
  655      1       8.07308215       20.87657029        3.65060132
  656      1       2.05258859       12.81271299        2.26900340
  657      1      11.95153155       13.04576986        5.96127369
  658      1       6.68411426       16.06173183        1.85149970
  659      1      26.22744472       20.37090113       26.29739712
  660      1       7.87544297       22.67160504       19.06783586
  661      1      16.25754027        7.57322881       26.66061462
  662      1      19.40128455       18.53925704        3.31535704
  663      1       0.96104493       16.25286002        0.75285664
  664      1       1.09727824       25.40799082       14.24640636
  665      1      17.13453368        9.81087284        2.38278617
  666      1      14.99593548       14.54836019       17.54750124
  667      1      12.02030062       12.63035206        3.60833572
  668      1      13.04480606       19.86239651       13.02915060
  669      1      21.18465246        9.10853199       22.07646643
  670      1      20.73627541        4.93225866        8.80781616
  671      1      24.19968381        7.62786675       19.23955687
  672      1       8.56948453       11.76839590        6.84263084
  673      1       7.52676581       13.63474843       15.30676789
  674      1      16.40386746       27.28477241        7.49247922
  675      1       1.51071438       12.82839370       10.27960856
  676      1      25.63392318       11.52808052       10.81634055
  677      1       8.21847001        4.82259038        7.07961870
  678      1      20.30447126        4.63314534       17.60960297
  679      1      10.44564050       18.61994819        0.96603387
  680      1       1.95551673       22.76080791       22.09612303
  681      1       3.39886121        2.45902013       19.80978320
  682      1      12.64536930        8.62543809        5.01768971
  683      1      19.93016805        1.97884797       21.62456596
  684      1      15.33523126       23.84420662        3.78150876
  685      1      23.43281357        9.75941961       15.86844086
  686      1       2.32530072        8.84803092        3.17835832
  687      1      22.44217638       10.19400426        2.53303791
  688      1       4.27543859       12.32019192       24.33088001
  689      1      20.67063031       26.21750804       12.46603518
  690      1       5.30491207        8.61306810       18.89909877
  691      1      16.92765671       15.40387570       18.47256882
  692      1      20.92164572       10.26193995        7.16463736
  693      1      15.62253268        5.30497799       26.20791529
  694      1      18.97773761       17.82595095        5.71910857
  695      1       1.92082619       25.50356812       25.70793614
  696      1      21.35497137        6.55082478        2.13006251
  697      1      23.54052429        8.18242661       27.10602853
  698      1      19.04869879        0.68858353        5.14011451
  699      1      20.96978350       11.80711081        3.61859637
  700      1      23.55064709        8.36916493       21.64801966
  701      1      21.19326122       27.62978051        5.13101546
  702      1      24.96824210        8.82150564        8.56211201
  703      1      10.72935581       23.10907349       21.06120014
  704      1      10.50891866        6.77251376       12.07394585
  705      1      22.29893433       21.62323569       15.04232912
  706      1      19.29484475       15.84635221       22.04332937
  707      1       0.28051315        3.13271084        3.57247299
  708      1      10.78803821       26.76142126       21.40861899
  709      1      15.10410260       19.35751005       14.33659562
  710      1      16.41968168       27.61859531       20.61677447
  711      1      23.32430633        4.47853721       25.60983717
  712      1      14.51989905       17.40697565        0.43094309
  713      1       8.71992473        0.56309131       24.13573608
  714      1       5.42453219       17.70054701       14.62736035
  715      1       2.48641985        6.49973614       19.97498882
  716      1      16.27561372       20.07827116        9.81846114
  717      1      10.15366016       18.99697377        6.32816938
  718      1       1.19940926       27.63330400       13.49388733
  719      1      11.34063178       10.71986571       25.45946619
  720      1      25.41722276       19.36895580       16.06401225
  721      1       1.99013776       20.02599374       18.05772205
  722      1      19.13797361        2.61724518        3.78406196
  723      1       3.75663684       10.11138151       27.37034765
  724      1      24.08237193        4.82593236        4.18118883
  725      1      12.28930161       11.84329324       27.40280624
  726      1      10.10264690       13.38692721       20.24362438
  727      1      23.32395827        8.87015718        4.23614220
  728      1      13.70186116        1.92530507        5.98608125
  729      1      23.36364730        7.32429637        7.80203023
  730      1       0.14903467       16.06701243       24.38560202
  731      1      26.79105180        2.72266237        5.61332096
  732      1       0.43706684       21.21277878       25.15734644
  733      1      26.28026175        4.41546109       19.37228713
  734      1       7.25181320       17.94953539       17.86270576
  735      1       1.48472085       11.58648704        5.98660158
  736      1      19.22803613        2.12049822       14.23752929
  737      1       7.73565240        1.85117063       20.42587720
  738      1      20.93951450       14.36305394        6.43000680
  739      1      12.87797168       11.55126996        7.49722475
  740      1      13.75205478       18.69013661        7.79077368
  741      1      23.18248421       14.52406421        2.83295216
  742      1      19.18003124       11.50085389       15.93167914
  743      1       8.24558083       13.62276652       18.81765306
  744      1      22.94351758        6.80609088       25.23940060
  745      1       7.08224351       21.80695090       24.68737281
  746      1       3.31228457       21.36094004       10.67846898
  747      1       0.98500729        0.50004295       23.53575523
  748      1       6.07695953        8.75461374        2.52592246
  749      1       5.65387271       17.29275444       10.85143645
  750      1       9.98214638       26.23028178        6.57356484
  751      1      18.45464618       19.41660456        9.39068392
  752      1       9.23380889        1.74201698        0.08858900
  753      1      22.56918914        2.59066544       15.86907817
  754      1       3.80045048       20.28738272       23.86917796
  755      1      15.73083909        3.35720117        5.43350518
  756      1       7.12398412       18.86685235        4.45433725
  757      1      23.14705087       17.06541877       27.11159170
  758      1       3.74717634       20.25316398       12.74646142
  759      1      25.63799550        9.65590570       26.46587580
  760      1       8.79417907        8.96664356        9.38458806
  761      1       0.08498094       17.98273529       12.28313516
  762      1       3.11596529       17.19058890       14.06073839
  763      1      11.01080289       19.70272575       14.39997054
  764      1       7.43785607        1.67622277        3.66838819
  765      1       2.62518145       15.05352382        1.97969360
  766      1       3.74597449       17.75957607        4.15880822
  767      1      19.17948207       18.67672510       19.56574301
  768      1      14.60752081       18.12799072       25.86975785
  769      1      18.60746809       23.02220798       20.87670055
  770      1      17.10509361       16.51683263        6.49643189
  771      1      20.79221758        8.84630540       18.39798792
  772      1      24.64044610       13.06277971       16.08807362
  773      1       8.71063078       23.39994247       24.16933973
  774      1      14.02074959        1.93829562       18.63478939
  775      1      20.14279252        2.69135859        1.54032664
  776      1      10.45423090        7.19766883        9.74133600
  777      1      20.63669003        5.54679145       21.14085267
  778      1      15.60020896        2.89900251       12.90944734
  779      1      13.27502939       11.83292057       11.15941473
  780      1      19.39501775        9.10821026        8.68734711
  781      1       7.39702528       26.94321967       16.25542112
  782      1       4.77097561        7.70635680       10.01408000
  783      1      24.56719072       26.80915497        2.47414921
  784      1       3.65985737        6.00082412        0.49839965
  785      1       3.75189849        5.13790561       23.02173137
  786      1      13.64960592       23.58998696       17.65432007
  787      1       7.18956202        6.92421265        6.80027043
  788      1       9.78485990       13.71757953        6.35144471
  789      1       4.98700104        1.94185178       23.29147084
  790      1      27.25886598        2.16304808       20.35565911
  791      1      22.07350286       15.39555771       10.01828032
  792      1      21.49071334       13.51756192        8.63104124
  793      1       6.54535755       12.03180067       23.65245210
  794      1      23.94603104       12.23843292        5.99190094
  795      1       6.13318911       26.19176407       19.23300054
  796      1      27.52158321       25.04002606        2.42293170
  797      1      25.00807572       15.15535589       12.25447330
  798      1      25.75591138       13.68298322       21.93905829
  799      1      15.14703225       25.41461672        2.15429486
  800      1       4.52584887       14.26393307        5.45895192
  801      1      10.12625437        6.23356788       24.04088500
  802      1      10.67804806        7.49513750        4.34264165
  803      1      26.67427791        6.47616450       16.40530057
  804      1      20.09407660       20.86233915       23.67932557
  805      1       9.45366011       22.97981962       12.91501616
  806      1      21.18074784       23.65054491        5.73063266
  807      1       1.85988410        9.24876029       26.50164976
  808      1      10.75214067        3.41897428       17.70666132
  809      1      21.10329227        3.66849178       14.34768123
  810      1      21.02187173       20.09387792       26.94355893
  811      1      27.58452595        6.29696391        4.89726610
  812      1       8.54619618       17.04024718       21.51478740
  813      1      15.88090575        5.95100950        8.21565935
  814      1      16.53502197       11.84254587       26.76244263
  815      1       8.36841580       14.70774511       25.29224538
  816      1       7.62188292       24.68411060       22.53958606
  817      1      26.43947880        7.89131027       24.85742940
  818      1      14.54083624       10.97603778        0.03532489
  819      1      11.64903908        3.05446551       12.16740390
  820      1      10.83938020       12.39008482       14.41918467
  821      1       1.68308703       18.21353683       19.57058840
  822      1      13.77798657       21.04983730        7.68060698
  823      1       0.80243591       11.32432479       19.99316817
  824      1       0.67483038        3.66016402        9.10829002
  825      1      10.30595378       14.73160974        0.91876434
  826      1      27.34389360       23.89574736        8.98689355
  827      1       6.19621401        5.23685358       15.98201029
  828      1       0.90454833        0.90459086        2.97026384
  829      1       5.92207695        5.63467058       22.11010315
  830      1       8.82340719        9.66020314       11.73379102
  831      1      26.65404526       10.94579340        3.41894596
  832      1      19.57913693       11.26627414        5.44397430
  833      1       2.16215380        5.41752400        8.54996037
  834      1      15.44952230        0.04651440       15.26548257
  835      1       4.16350432        0.92662563       21.39850781
  836      1      25.88379807       12.29497302        1.66245783
  837      1       8.36418237       24.63112693        5.72820973
  838      1       2.68506292        4.44723907       21.05198801
  839      1       8.02019745       24.61766564       15.91437806
  840      1      22.02884936       26.73000719       19.79566835
  841      1      22.25713626       23.19234237       21.47158976
  842      1      10.33622471       15.37595381       21.60492422
  843      1       5.26402021       18.82020458        0.43597626
  844      1      12.29976835       10.20198906       20.44381603
  845      1      24.98392597       15.68528157       26.60205792
  846      1      13.30034356       24.81372868       24.93786619
  847      1       1.99222405        0.74060831       11.33065849
  848      1      24.35701492       15.53204670       22.74634688
  849      1       5.83201961       23.26441764       12.81024707
  850      1      19.13462470        7.95758773       12.45752446
  851      1      17.50277956       21.46202370        1.79731675
  852      1      15.63728441        2.43628556       15.21975500
  853      1      16.73615234       10.70454390       24.62238913
  854      1      15.30865926       13.22125313        5.56260043
  855      1      11.67381529        2.35550644       19.62198698
  856      1      11.44844116       22.57641113       17.28876353
  857      1       1.97039126        8.42630337       14.11676579
  858      1      23.21265960        0.78890010       22.89287908
  859      1       6.83081421       21.07098276       15.42655945
  860      1       9.02357777        4.33455866        5.00886849
  861      1      10.44859189       24.38488839       15.97877178
  862      1       3.32838329        5.25061509        6.37523242
  863      1      14.27648938        1.50778502       23.22458974
  864      1      20.27128232       10.24632766       20.25327773
  865      1      18.54037759       12.39376684       13.75088343
  866      1      27.24426072       26.31945391       17.95629369
  867      1       6.82055870        8.19474531        0.33902894
  868      1      11.05365647        5.26357743        4.50258354
  869      1      22.77135861        0.29550333       27.18713436
  870      1      23.67449919       17.02181845       17.24907898
  871      1      20.98863011        4.70658108        0.58417368
  872      1       5.26232151        8.64007218       12.09083310
  873      1      25.07518432       10.11345989       21.30200208
  874      1      13.92102039       16.39941152       16.60236793
  875      1       3.35265780       16.99687090       10.25836345
  876      1       4.44364388       15.22791835       16.77712400
  877      1      21.84829353       13.82204597        0.96173422
  878      1       2.91166769        0.88512920       14.87111207
  879      1       3.15939313        6.61384757        2.80619947
  880      1      26.14322065       27.61489307        9.29384081
  881      1       6.70938743       11.33198721       15.94972192
  882      1      15.10081014       18.45801325        4.21601944
  883      1      23.05581117        9.31514346       18.13850750
  884      1      13.79255605        5.83056302        1.93611772
  885      1       5.03702799       26.38322395       10.81348979
  886      1       2.77323346        7.05942626       24.09557223
  887      1       0.44960350       27.64964584        7.95612517
  888      1       1.92276602       24.56123695        9.22010153
  889      1      18.80345996       17.18496138        9.74735170
  890      1      22.46058317       16.69915489        3.01273294
  891      1       1.54519965       15.54120344       26.29773344
  892      1      12.29553880       16.62963099       20.99665575
  893      1      13.60408865       21.87750560       11.81795617
  894      1      25.94362252       25.75356328        0.60849511
  895      1      12.18339550       27.19327424       27.41874157
  896      1       2.82904752       13.81287112        8.68320708
  897      1      19.41783011       26.21270798       14.58602424
  898      1       2.94436116        8.87874203        9.04881421
  899      1      22.83668450        4.42815215       21.49800601
  900      1      25.11204937       26.51760460       13.48011516
  901      1      17.55148245        7.24509724       22.91708291
  902      1      20.81552707       23.86499368       12.48467792
  903      1      17.06415873       25.93064773       14.50978471
  904      1      26.69314202        6.00438693        0.90675103
  905      1      17.76159208       14.36799038       14.74544321
  906      1      14.25316462        8.77414754       27.01069886
  907      1      17.10662544       26.90999426       18.38690232
  908      1      23.94369540       27.60427258       20.83755829
  909      1       0.63839064        2.79618207       16.86613969
  910      1      11.30181236       26.49279926       16.64863214
  911      1       9.62453067       26.09658029        2.11962188
  912      1      26.70477485        7.95033033        9.87821841
  913      1       5.97578004        2.51686746       10.96855057
  914      1      20.39143896        7.81611474       14.66422103
  915      1      22.08997553       26.46139999       23.58770869
  916      1       6.75525437       11.33438527        5.40063021
  917      1      24.62330028       22.17664613        3.31756060
  918      1      22.22719633       20.21701430        1.29699263
  919      1      26.67186261       10.12097543       17.33253659
  920      1       5.41058871        7.36674491       15.51666688
  921      1      11.33010014       12.11364237       23.53462600
  922      1       8.89378003       20.91157059       13.98845357
  923      1      13.58550226        5.26174542       22.61355995
  924      1      17.53093226        8.52845042       24.92779171
  925      1      17.29821978       24.52747561        5.16115624
  926      1      26.10065075       15.00851883        8.64546421
  927      1       5.67963859       18.81811241       12.60497207
  928      1      11.63584088       27.65313525       14.47771872
  929      1      16.44542818       12.03124665        9.03941140
  930      1      13.66109880        1.27151146       26.74931217
  931      1      17.75706364       19.25768668       17.69224069
  932      1      19.52728673        1.11559432        9.32103082
  933      1       3.42031667       13.06910850       17.28047875
  934      1      19.99213936        4.43303623        4.98029612
  935      1       2.33179017       26.93784839        9.22417560
  936      1      21.01547984       15.71778108       20.16999468
  937      1      15.44267493        7.27762677        3.07143725
  938      1      14.89733089       10.63742830        2.30673430
  939      1      22.39680196       11.96123397       12.92262212
  940      1      14.69327167       11.81450003       14.40564971
  941      1       8.13611536       22.21109791        5.61116644
  942      1      15.77461191       17.20201005       15.15135581
  943      1       5.70641990       21.98933139        5.79317988
  944      1      12.65595503        7.80831835       19.96295947
  945      1      12.23918734        2.13972909        2.37108538
  946      1      25.98245658        4.13421883        9.39282120
  947      1      15.45695866        0.52577389       25.32941267
  948      1      12.48771408        8.26883287        9.17647442
  949      1      15.55013733       22.30055574       18.75930133
  950      1      21.39733967        3.24214258       24.96151505
  951      1      25.28311635       20.72983176        8.55556805
  952      1      10.35697465       21.68124175        9.24157235
  953      1       8.71203981        9.50851090       21.82878018
  954      1      17.99845135        7.47302108        7.43327237
  955      1       9.93810977        2.74781816       10.36517819
  956      1      23.47422224        8.08220617       12.66456654
  957      1      21.04755679       15.20325525       25.17426834
  958      1      13.47688315       21.71260141       27.03438095
  959      1      13.63834674       24.45070798        8.60958246
  960      1      15.16029259       15.96300922        9.72866881
  961      1       9.62563987       13.40938641        9.95016020
  962      1      21.03871563       17.13299877        8.89758128
  963      1      26.45627361        2.44800113       12.37273852
  964      1       6.09648716       27.14009547        6.83305396
  965      1       8.58046557       14.69923288       11.74258602
  966      1       8.03308857       20.88326587       26.59653067
  967      1       7.38089917        8.94176163       15.43108334
  968      1      18.34941415       11.29392576        0.72914204
  969      1       4.56628425        7.49949583       20.78717717
  970      1      11.76903832       13.21686072       18.52398705
  971      1      26.35685397       21.23605752       19.55730082
  972      1       0.34522939        8.10248342        6.40185173
  973      1      18.35072606       11.69400786       23.08858404
  974      1       4.59704507       22.95791444       17.65424125
  975      1      11.23428764       10.05264225       14.66196098
  976      1      25.12020827        1.51738467       24.07601382
  977      1      19.20235474       22.77986343       11.13866078
  978      1      26.13698865       12.17298105       14.37264798
  979      1      17.12836034       27.26250542       11.22023757
  980      1       0.97644714        0.69036746        0.59033593
  981      1      14.19238381       11.61298421       20.71573044
  982      1      23.29830743       25.92309953        7.61837534
  983      1      15.17610311        3.48269775       22.28789050
  984      1      24.23919157       13.50163846       25.82945514
  985      1      12.86204864       17.40183105       18.66860203
  986      1      25.84985025        4.86750236        5.68691907
  987      1      14.87684495        5.79338322       17.37414134
  988      1      11.55556160       19.84637301        4.63152810
  989      1       3.58181686        3.27512409        2.91342792
  990      1       8.59867546       17.32709523        5.56270182
  991      1      25.78101890       13.62621410        6.48719600
  992      1       3.98068780       23.67071093       23.16625376
  993      1      17.68332416       16.95417249       16.75198733
  994      1      13.29827147       25.51569925        6.28782855
  995      1      22.33540004       13.36218965        4.71105028
  996      1      24.35519336       18.58168618       13.91873946
  997      1      19.24239598       25.26561926       20.89301080
  998      1      12.24261374        5.33752075       12.54799671
  999      1      14.31112776        2.17486088        1.08924013
 1000      1      18.03332176        9.66238527        4.67040701
