run_id:  1013  total_energy:   -3027.314974483456

  1000 atoms
  1 atom types
  0.0   27.664  xlo xhi
  0.0   27.664  ylo yhi
  0.0   27.664  zlo zhi

 Atoms

    1      1       0.02781417       18.76223618        6.74992823
    2      1      14.61637315       18.56837571       19.61095143
    3      1      19.84206091       15.24512813       15.86603549
    4      1      17.39570380        8.34960279       17.15105907
    5      1      12.81652549       12.81600780       13.23213160
    6      1       8.89521168       16.64603742        0.80323042
    7      1      13.86466438       23.97744673       26.99590227
    8      1      24.92089119       22.95161112       12.34401599
    9      1       0.65798988       26.02518170        6.09584378
   10      1      26.74230351       27.54785277       27.09599998
   11      1      26.23431495       24.04856892       26.52704127
   12      1      24.72331447       12.82002482       12.63983119
   13      1      11.74656875       16.38394383       11.39559124
   14      1       8.77219817        2.81301997       23.39061810
   15      1      22.31956620       12.23763706       22.82099989
   16      1      15.99644239       21.58334251        7.98045701
   17      1      22.71858259       17.48977538        5.24823184
   18      1       5.65790437        9.36039054       26.33636125
   19      1      25.02672091       10.30015081        5.05651624
   20      1       8.68770915       12.91604185        1.33376245
   21      1      25.65222457       18.10572740        1.76770265
   22      1       2.99470342       23.65467881        7.18285392
   23      1       4.98754746        2.31242834       17.97985236
   24      1      10.50598184       14.33528146       23.86985832
   25      1       0.30722203       14.92333104       19.01286009
   26      1      27.43472484        9.49586420       21.19069733
   27      1      12.92384525       18.16222242        3.64115284
   28      1      22.32689081       19.11152654        9.31419800
   29      1      17.73256004        3.21627135       15.55737727
   30      1      27.30333302       22.38984784        5.58860874
   31      1       4.80667690       21.75832640       14.26667523
   32      1      16.67288681       18.82701876       22.83910222
   33      1      16.95408481        2.93304564        3.36196204
   34      1       9.66811145       16.72667660       12.33794412
   35      1       8.23091051        6.07910194       12.54195798
   36      1      15.73793235       27.19079250        3.59900941
   37      1      10.64860549        6.57453216       20.11157822
   38      1       7.05139653       26.89929035       23.02265002
   39      1      21.88620738        2.74884781       18.07721807
   40      1      10.72213536        0.52599094        1.29652812
   41      1      10.83163442        7.12664002       27.65972240
   42      1      10.63243931       25.35280146        8.66104074
   43      1       4.51400780        0.66710799       11.50191877
   44      1       8.91167120       18.72885857       23.18525839
   45      1       1.41303236       13.19919170       26.38504837
   46      1      23.72092764       11.00565137       19.48636322
   47      1      14.36426643        7.66966895       14.47322720
   48      1       6.62732289        4.99269041       25.70576959
   49      1      14.98636843       20.37171558       25.92668584
   50      1       9.77543556        4.83203940        8.97544369
   51      1       1.39492615       18.51794417        1.05307619
   52      1       7.37611768        2.39628331        1.29582563
   53      1      24.45671093       19.98018217       22.66960414
   54      1       0.31936750       21.48686489       13.30934739
   55      1       6.87215465       21.93683723       11.07814804
   56      1       4.64099373       24.44835285       19.60592364
   57      1       1.89650283       18.83181543        3.33932859
   58      1       5.76650413       11.74494364        9.30758509
   59      1      27.19071914       11.73527998        7.34917599
   60      1      23.34917829        4.42586930        0.20991563
   61      1       2.39864654        3.06363289       15.25868975
   62      1      18.78152747        0.72976824       23.30576573
   63      1       8.12711263       11.66965261        9.25038368
   64      1       5.42125865       27.56553148       17.41314003
   65      1      20.40193522       21.77870593       21.54747969
   66      1       7.09055237        5.12558474        3.62245828
   67      1      15.95047035       13.21513096       15.94121826
   68      1      24.46239507        7.23914320       23.54510435
   69      1       0.23688101       12.33096436       24.57632338
   70      1       7.17207976        2.97652630       18.45069066
   71      1      10.36157919       17.36679916       14.62520072
   72      1      13.74133079        9.71496042       17.34713776
   73      1      13.31036821       21.09117372        1.56796115
   74      1      24.83944997        3.53071734       14.79248864
   75      1      26.35645371        1.85850800       15.77412395
   76      1       2.66671431       10.67182580       10.63428272
   77      1       2.64997959       23.58898588       11.14715383
   78      1       7.68590467       20.00260486       12.18092025
   79      1       3.85575877       16.83507325        7.79540908
   80      1      23.73765868       26.58106751       16.58365575
   81      1       6.99740652        7.53292221        9.03669975
   82      1      18.81421868        4.00523912       21.35540245
   83      1      11.05717259       18.96794559       26.26506820
   84      1      14.75659806       27.41093853        5.81387224
   85      1       0.66149193       22.03616838       18.54014781
   86      1       5.68610249       17.97334579        2.80714528
   87      1      26.81257765       25.17082485       19.89854825
   88      1       9.56126184       14.98540131        8.24856964
   89      1      25.29155889        3.79829048       24.48270748
   90      1      24.21640146        5.81243868       15.86256102
   91      1      11.78547032        4.49087820        2.42694020
   92      1       0.55387916       12.58358236       15.62939297
   93      1      20.01063139        0.36274503       15.58806110
   94      1      16.11510949       10.24918368       20.33807277
   95      1      22.85521541       14.24190967       24.03918392
   96      1      17.71880750       20.82135717       23.70953526
   97      1      10.07739973       19.74773441       19.81150346
   98      1      12.97781110        9.46588189       11.22097601
   99      1      25.51841744       10.07584695       15.26130462
  100      1      27.54682575        6.25051423       26.29261424
  101      1      22.77666370       11.61026821        8.02008383
  102      1      15.02028565       26.02989637       23.99222750
  103      1       8.97608032       14.68250660       16.85950205
  104      1      18.90999764       22.89894192        5.06385875
  105      1      17.88688036       26.50927184        4.11352124
  106      1       2.92506531       25.46961296        5.77242186
  107      1       9.69350899       10.00248634       18.13786200
  108      1      11.21222034        5.33389662       22.12218185
  109      1      23.76742146        1.42529002        2.61267562
  110      1      16.04479873       24.51922109       27.66350715
  111      1      13.85229801       13.61467189       19.48647250
  112      1       1.78864327       15.69367004        7.47884814
  113      1      11.10142292        6.91143094       16.51527715
  114      1      12.88817391        7.73524528        0.97326251
  115      1      23.81273071       24.45256072        9.45115825
  116      1      17.20891920       14.58746261        5.21584673
  117      1      19.85545880        4.88702051       25.93235350
  118      1       8.67653529        2.37322878       14.72493905
  119      1      18.92607354       18.95266527       13.04549670
  120      1       8.90058420        2.11551518       17.06090074
  121      1      12.55849541        5.87859343       14.81292336
  122      1      18.16613150       15.15611706       27.06864486
  123      1      26.96511498       14.25717721        4.58356418
  124      1       5.77553197       19.21518105       16.52129387
  125      1      14.48513253        6.78619836       21.03669904
  126      1       2.64775416       12.38092606       20.85977301
  127      1      19.65661646        6.30190423        3.73326053
  128      1      11.10522273       13.92033959       16.27429050
  129      1      20.92736227       16.69132673        6.58053330
  130      1      14.90563842       22.21229164       20.97787119
  131      1       5.07533740       11.00760937        7.09228273
  132      1      14.92099998       17.20964614        6.21981778
  133      1      25.14348662       25.22824878       15.22350596
  134      1      16.84459899       22.74680394       22.47856875
  135      1       5.23573487       23.21098134        7.66065430
  136      1       6.05331678       21.01847819        0.36272917
  137      1       9.51152326        2.00969756        4.97108397
  138      1       3.00697817       19.44976001       27.29599719
  139      1       6.27970013       15.01674937       11.22181897
  140      1      13.02456249       15.80970358        3.85106040
  141      1       9.58910754       24.46025973       26.10664802
  142      1      26.86257003        0.67877736       13.76493576
  143      1       9.19914521        9.65066260       25.62747431
  144      1       3.89796624        9.01303605        6.87012891
  145      1      17.17402345       23.46880918       10.81499709
  146      1      21.64040260        8.61026784        1.01092951
  147      1       1.83528937       21.88237884        5.95102491
  148      1      11.44644336       26.90363638       10.27779502
  149      1      13.75380712        1.82881179       11.98575990
  150      1       7.36120518        1.17759953        7.91717496
  151      1       0.43150676       12.18010612        0.58082926
  152      1       0.11512776        9.16093690        2.38006114
  153      1      15.44825417       20.61728478        4.74885941
  154      1       7.80332064       25.62710343        3.65584827
  155      1      14.12083721       14.36607191       23.39101084
  156      1      24.67085488       17.70477133       19.17160213
  157      1       2.07725832       24.89834973        1.70468437
  158      1       8.73983456        8.28469582        5.44685705
  159      1       1.26644576       14.15995399       12.23414313
  160      1       2.13256717        6.92306730       26.37543390
  161      1       4.22610779       20.55065188       17.98595467
  162      1       5.36913336       16.31121227       18.53441779
  163      1       5.07201930        1.14128408       13.78668982
  164      1      27.45342088        7.07669827       14.33185911
  165      1      13.34953303       14.85815249        8.56649670
  166      1      19.42004057       23.58787443       26.72107471
  167      1       5.81275532       15.24977355       14.92299886
  168      1      10.98214009       18.60146108       17.93675654
  169      1      14.66681690       18.27580680        9.86348757
  170      1      26.62160520        7.25697643        3.00048445
  171      1      11.50243134       24.51099205        2.76943230
  172      1      20.63310289       15.34292200       12.07317036
  173      1       7.35887352       17.96930063        9.30405613
  174      1       1.69953009       14.53347195       21.15564490
  175      1      16.35563984        9.18526966        6.29238887
  176      1       2.24837020       21.13076505        3.69296731
  177      1      18.12199423       13.58210436        8.55622208
  178      1      25.66490109       23.38841578       22.57246177
  179      1      11.51542982       18.22446577        8.05271541
  180      1      25.55330377       18.08201123        4.05313687
  181      1       8.25354274       25.20610221       19.00197491
  182      1      22.49775934       21.05960847       18.68464171
  183      1      15.40152293       21.75425194        2.76108428
  184      1      21.11846915       26.87029052        2.96946316
  185      1      24.96858493        1.48989219       19.38612400
  186      1      21.93295635        8.33631611        6.14785567
  187      1       0.81960876       23.36523687       26.24737507
  188      1      12.55965748       18.41253192       22.57315441
  189      1      17.44783923       22.58999481       27.41438359
  190      1      14.92159956        5.54664360        6.08281285
  191      1      14.26619856       25.55472321       12.35852454
  192      1      10.81076669        3.07177764       22.00252357
  193      1      25.71819900       25.28416525       24.12812861
  194      1      21.78891389        0.97845330        1.62909382
  195      1      10.27079949        3.53418291       26.72900006
  196      1      18.01863779       24.71631713       17.48040839
  197      1      20.86999797       20.78908675       17.02426669
  198      1      16.55248517       25.34949392       12.24751860
  199      1       3.40118653       26.91131236       16.44389080
  200      1       1.23980485       18.07760316       10.17047733
  201      1       4.06199347       15.96006286       26.29618189
  202      1      16.02970500        5.78617412       19.39170757
  203      1      22.02295456       20.54489093       11.22761035
  204      1       3.76014252       24.86037389        3.46827677
  205      1      18.28023067        5.71454144       12.34052613
  206      1       9.18102392       10.56049546        1.90309863
  207      1      26.80683775        5.52256899       21.30313387
  208      1      26.27367349        7.93204020       18.31277791
  209      1      26.87259568        4.87570164       13.19542529
  210      1      12.96366291        8.97171973       25.10550457
  211      1       4.70181618        9.28661793       22.35816597
  212      1      24.77260304       22.21541144       26.75445423
  213      1       0.17783793       17.86730307        4.67870837
  214      1      23.17303923       16.72773310       20.92458747
  215      1      13.17217356       25.91936999       18.13538415
  216      1      14.14903412       15.26886288       21.17888222
  217      1      26.28874713       15.98111195        0.96586903
  218      1       4.87340257        3.18808088       26.41568879
  219      1       3.81146195       18.62933614        6.35545597
  220      1      20.50165200       10.72527104       23.77417322
  221      1       9.89770255       22.34458676       27.24734337
  222      1      11.36825395       25.99581751       25.47798166
  223      1       1.73244434       12.29841391       13.59910675
  224      1       9.78927718        8.85926778       16.10578997
  225      1      17.30074527        3.78615610       19.56502766
  226      1      16.54463144       11.41947517       12.90533870
  227      1      25.56451562       14.40920048        2.58660023
  228      1       6.15931828        5.96201684        0.13085414
  229      1      13.68604685       12.05168921       22.98426254
  230      1      26.59711319       20.31682115       21.54252379
  231      1       7.62332405        5.61065763       10.26086515
  232      1      22.59286183       19.78196127       13.43913288
  233      1       4.41278445       12.16490389        2.34863814
  234      1       0.96320820       19.17691945       21.50909546
  235      1      21.37506429       16.13407025       14.10849096
  236      1       1.79863773       27.07266336       18.23406637
  237      1      17.04565231       24.92672902       23.61001763
  238      1      20.04786338       24.02009594        1.30733861
  239      1      14.20549146        6.09970085       11.43958072
  240      1      22.27556262       25.25742041       17.96324035
  241      1      14.69403792        9.95676210       23.67550613
  242      1      19.55527383        7.83942219        5.40477637
  243      1       5.40735968       18.59047974       23.95693493
  244      1      24.84333932        2.74726317        0.90832974
  245      1      12.16306979       12.82928729        9.41903469
  246      1       6.89118183       24.97915040        7.52446364
  247      1      19.00698238        5.07170612        7.12844303
  248      1      12.17515123        3.64981275       15.82834266
  249      1      22.53786200        9.81667014       11.61754058
  250      1       1.37992579       18.87225865       16.03936639
  251      1      16.10898903       14.15617097       26.59694607
  252      1       3.00502009        1.15783094        3.75044733
  253      1       5.21123545       13.10621316        0.28587088
  254      1       5.72297161       23.41005901       21.51431196
  255      1      11.85226567        6.83202295       25.47288733
  256      1       0.99175481       15.76012322        5.22159699
  257      1      24.27497332        0.30523483        7.86630870
  258      1      24.65440264        5.18786941        7.75410808
  259      1      15.47677555       27.57705342        9.58012378
  260      1      23.39445013       18.16818605        1.42586044
  261      1      21.11213774       19.96610487       20.29756111
  262      1      25.59187394       16.72735670       24.50595099
  263      1      24.89183853        1.26856323       26.65018504
  264      1      19.95666869       16.89428316       24.07060598
  265      1      12.84310696       18.71836713        1.45781248
  266      1      17.48539624       21.19514948        6.12359677
  267      1       7.57598802       26.66169553       10.77773699
  268      1       9.33336702       24.96213218       21.05788497
  269      1       6.93668649       19.95650644        8.22886369
  270      1       5.43995071       21.53361699        9.33509075
  271      1      16.37056035        3.66840855        9.44083012
  272      1       4.90556023       10.92039057       11.64920042
  273      1      21.79055467       12.02115865       20.40834480
  274      1      16.03872070       21.50487684       11.59614130
  275      1       0.04736571        9.86329731        0.10683373
  276      1      22.26388948        3.79317524        5.47907756
  277      1      17.81641137        7.25867581       19.15440673
  278      1       4.95477778       16.54377020       22.82883075
  279      1       8.91175080       22.94604529       10.56400014
  280      1      20.32779728       24.70432594       16.49149643
  281      1       9.65182319        9.63688234        7.12078823
  282      1      26.76258525        0.85259739       22.32691757
  283      1       2.00857856        4.98442889        4.25689222
  284      1      20.90607140        1.14533986       26.03556317
  285      1       2.61340832        5.84903668       17.65399625
  286      1      22.79516183        7.69607544       14.82829987
  287      1      15.50346419       12.61034319       11.14775497
  288      1       4.80407920       14.79918778       24.41206981
  289      1       1.49621954       10.34883690       24.29348348
  290      1      21.39688303       25.39341713       21.61531961
  291      1      10.40327192       11.21825577       21.56513925
  292      1       4.09992524        4.09982227       16.62302720
  293      1       2.81090701       20.62766703       21.72707694
  294      1      23.42170577       25.71385481       27.22421422
  295      1      20.68861140        1.03264015       19.43668106
  296      1       0.15899473       14.13102195       22.96770026
  297      1      17.84428890       17.54678883       21.24575603
  298      1      14.31671055       15.02402899        0.26226271
  299      1       0.58395606        8.48331517       23.32067863
  300      1       4.78041224       27.08189916        0.57936369
  301      1      19.35497053       25.32397609        8.55542985
  302      1      14.68988295       14.65606464        2.50930065
  303      1       7.28050762       10.98575384       25.71227156
  304      1      17.26569804        4.35794286        1.56761196
  305      1      19.97623888        7.17068137       22.61248063
  306      1      16.69834566       23.92969867       15.57589807
  307      1       4.10278692        9.92288978        2.03135691
  308      1       1.56913001       20.31120094        9.45088455
  309      1       9.47951802        0.83664357        7.06359789
  310      1      24.92003010        1.09067710        5.79753975
  311      1      20.12407304       16.95335439       18.10230580
  312      1       0.95848824        3.00526049       27.61500160
  313      1       3.16286115       11.05199096       22.77664263
  314      1      23.73687586       22.22466856       22.99644645
  315      1       1.37898490        1.67049213       18.76167144
  316      1      14.89316401       27.46762087       17.54795839
  317      1      13.23033251       21.41904051        5.42952323
  318      1      25.69863713       18.98759924       11.87773725
  319      1      24.63271959       18.47110978        9.74583400
  320      1       4.29198289       24.77744520       12.36457738
  321      1       7.76222168       24.33490977       13.65453056
  322      1      12.54595777       17.63249344       24.87012385
  323      1       2.05158700        9.34897112        5.51958970
  324      1      20.30235951       13.01255435       12.27807221
  325      1       9.90636425        0.71163005       19.94397770
  326      1      23.78719554       22.59944131        8.03474897
  327      1       8.35488926       26.45959686       12.87222574
  328      1      23.44922791        5.98785430       11.51217269
  329      1      14.84206008        7.70607336        5.22000784
  330      1      21.38682075       22.43472014        7.95078317
  331      1      23.75735122       16.27529891       13.93805532
  332      1       3.80367475        5.18881004       12.54978803
  333      1      22.54474348       18.80739410       21.80236415
  334      1       0.67793385        3.79495073       21.90291480
  335      1      11.01589720        2.22446200       14.26170042
  336      1      26.34117862       21.21140585       11.73467211
  337      1      19.69378610       20.60395668       11.45895938
  338      1      24.85347982        5.18973200       22.61150308
  339      1      19.87932568        4.38892414       11.01624442
  340      1      19.04626515       19.71362021        7.17197360
  341      1       8.74540918       13.06113117       13.42344388
  342      1      11.47510652       11.03833815        1.94597863
  343      1      18.73225534       19.17504159       27.06040106
  344      1      26.84364357       15.89743160       15.39111176
  345      1       3.52978076       25.84738204       23.96727983
  346      1      10.03568997       21.96401945       19.18953573
  347      1      24.11586675       10.93933784        0.83918283
  348      1      13.48867464        5.11492048       25.07556729
  349      1      25.88571636        8.61992364       13.47129358
  350      1      26.25212433        9.58763141        6.91425435
  351      1      18.21933640        1.13108515        7.28184566
  352      1      26.82049942       22.92892831        3.31898839
  353      1       8.09919589        0.28528724       26.39319462
  354      1      12.94488711        2.30904964        8.24986705
  355      1      19.77112648        8.98807597       25.45614134
  356      1      16.13603881       14.89954540       24.34472022
  357      1      19.75839571       12.45917258       10.02524406
  358      1      18.18550642       13.27861983       19.16766512
  359      1      22.63452523       18.81940616       25.62458892
  360      1      25.92434610       25.32627085        9.89139971
  361      1      15.13743763        4.37819903        0.66161337
  362      1      12.37631331        3.02770640       25.68997703
  363      1      10.17465904       20.39806817        2.75316758
  364      1      26.24641001       24.84135832       12.03635389
  365      1      16.17991416        1.15011118        2.09499366
  366      1      19.00588929        0.74322406       17.78914606
  367      1       6.62666057        6.74017270       24.02064293
  368      1       6.76055201       15.55053783       21.74516236
  369      1       8.37793114       25.86913852       27.54864182
  370      1      15.42545652       20.07617082       18.05588730
  371      1      10.84204886       27.47943979       23.68959385
  372      1      26.94369443        3.74396683        1.46146962
  373      1      23.16417062        5.75132620       17.99685633
  374      1      14.40265402       12.59194608        3.48104235
  375      1      16.85597533       15.46294312        2.98621474
  376      1       6.17546544       14.47356280       19.73300794
  377      1      26.12805015       20.50593101        6.42288436
  378      1       9.05882901        8.34211369       19.78200427
  379      1       3.96113255        7.33975018       13.57862804
  380      1      27.04568741       12.79957757        9.49296935
  381      1      24.61295923       19.97530891       18.25465403
  382      1      12.72882794       22.30609939        9.43240200
  383      1      12.99474018       23.68359684       21.30625645
  384      1      23.92991095       10.49152152        9.79239037
  385      1      18.11972157       11.37716397       20.76801430
  386      1      14.21297368       20.60571126       16.09619210
  387      1       5.83135602       19.70925252        6.21628114
  388      1      27.06390990       19.77625427        0.80998568
  389      1       3.71811244       17.58689615       19.83053569
  390      1       1.06735371       10.94441279       17.33324466
  391      1      11.11078256       22.28650038        1.73593078
  392      1       1.51171641       17.73348856       23.29172208
  393      1       3.75948513       27.27315131        7.11436236
  394      1      26.70861324       21.60583736       15.23425498
  395      1       7.37669964        0.43413431       14.27131651
  396      1       4.54677889       27.18858037        3.03300237
  397      1       5.51909486        3.51105544       13.08606182
  398      1       5.62692022       15.32906255        7.33890073
  399      1       6.30386815        0.03096559       20.90574118
  400      1      27.02084874       17.92941314       16.49027887
  401      1       8.97642027       18.50248174       10.92632620
  402      1       7.90289805        1.29671551       10.22224623
  403      1       1.81280918        4.18055857       13.19576065
  404      1       5.68485997        3.32013573        4.05645808
  405      1       7.41731669        8.24884106       13.01734445
  406      1       1.05737918        7.47337099        8.66355039
  407      1       2.70965315        9.65611857       16.10050998
  408      1      25.30456844        2.24503993       10.41813138
  409      1      19.31085963       26.81708932       10.38316168
  410      1      18.40024065        2.71106623       10.48081153
  411      1       7.57728895        5.37390314       17.89405568
  412      1      18.33790890       17.21087106       25.81903278
  413      1      11.85850573       10.87558762       18.33438853
  414      1       6.15224053       25.18681337        0.22208103
  415      1      14.47367071       21.26276797       23.86317735
  416      1       3.07242062       15.61325009       12.24013564
  417      1      12.24178405       14.21964670       27.14441378
  418      1      21.65786743        1.56970246       10.67211678
  419      1      22.93802355        0.01327747       12.90617164
  420      1      10.69627859       26.42447043       12.68463345
  421      1       6.63290694       10.48699997       21.77485598
  422      1       0.63211865       12.43613298        4.10256992
  423      1       7.75051516        9.76553082        3.82429905
  424      1      19.61819679       23.30301671        9.81192029
  425      1      20.71992858        8.45235150       10.67759667
  426      1      22.38336103       24.13260400        1.02307081
  427      1      17.25428472       20.75415686       26.01576404
  428      1      12.73365598       18.51684867       11.19959075
  429      1       3.42718487       25.08747649       14.76705712
  430      1       5.85975630       12.98506202        4.05566774
  431      1       7.45608370       12.95409590       27.02462539
  432      1      24.88799939       22.93425231       14.60426478
  433      1      22.83671578       22.89133380       11.19619021
  434      1       3.56390814        3.31422166       24.39724629
  435      1       0.68098863       22.89257540       16.40085876
  436      1      21.06239884       25.76707110        6.86836320
  437      1       8.42957902       24.96720984        9.40119227
  438      1      15.95632926       23.77280513        8.75392477
  439      1      12.97121156       25.38418832        1.12199572
  440      1      20.71462825       13.12350721       16.66237220
  441      1       3.83698515        7.92202501       17.14645220
  442      1      17.26044217       25.16968776        7.45558709
  443      1      17.30766620       15.80150757        8.72208500
  444      1      10.11862954        5.06000455        0.84410562
  445      1      15.22638981       14.91945462       11.83502575
  446      1      11.02235843        9.07939603       12.54442641
  447      1       4.37547346       22.30711113        3.81309887
  448      1       4.94402082        7.03455606        6.02512116
  449      1      24.88550238       19.02255968       24.78189355
  450      1       6.46377714       27.36329741        4.38419227
  451      1       9.40244557       27.39003084       17.73677318
  452      1      27.55631036       26.71484404        4.04939985
  453      1      19.64322547        9.32211324        0.05646125
  454      1       1.93757004       22.88093051        0.54238386
  455      1       5.94217238       10.81456332       19.50797682
  456      1       0.56389752       21.63430462        2.01039392
  457      1      17.30240513       11.96252314       17.32018448
  458      1      11.18147643       24.29435116       13.71001704
  459      1       4.67852516       15.22632618        0.75358080
  460      1      22.03020788        3.96962951       12.16588324
  461      1      20.14167767        5.56057208       15.37252791
  462      1      19.82959770       12.87434035        1.85376207
  463      1       4.37735577       11.43313200       15.74228122
  464      1       5.27282442       27.51525808       24.48236431
  465      1      13.07708172       15.11515131       12.93796616
  466      1      23.09977091       22.79648750       25.14214179
  467      1      17.09863573        9.29221174       11.95074592
  468      1      24.60413693       20.21335609        4.68230549
  469      1      21.85030422        2.65811403       22.69199460
  470      1       7.75647798       16.40465762        7.60406537
  471      1       5.34847808        6.86181620        3.70903683
  472      1      25.66481104       11.70179638       25.04088743
  473      1      22.86258169        1.63435558        4.86636034
  474      1      22.49483649       11.99291620       15.40577394
  475      1      27.50988909       22.01264582       22.95605513
  476      1      11.44061596       21.25274367       25.90172868
  477      1      15.72356068        2.25756358       20.24261294
  478      1       7.73603998       11.42177465       18.14010682
  479      1      22.82588232       12.33400111       27.20509332
  480      1      11.84273847        1.28753833        4.52212790
  481      1      12.21121647        4.60090391        8.35174690
  482      1      22.32330424       19.81554683        5.20090617
  483      1      14.46249233       23.02500578       15.51135870
  484      1       7.17966506       14.12054045       23.61634463
  485      1      17.90003629       19.15364891        1.64289739
  486      1      18.72433224       14.97524315        1.71204017
  487      1      24.63777325       25.00552049        6.03232100
  488      1      19.43588205       22.25893595        2.88390340
  489      1      16.11432868        4.84207568       11.65878641
  490      1       9.20583156       17.13075941       16.84133770
  491      1      12.16108194       15.77562408       15.12999731
  492      1      11.85323017       20.33079368       16.46814732
  493      1      27.20879680       15.75245824       12.98591782
  494      1       3.19644789       22.99610703       15.74295239
  495      1      19.09422763       26.12043744        2.12469770
  496      1      17.72306687       22.75820560       18.65093561
  497      1       0.05611809       16.93401414        8.43541714
  498      1      23.45517343       25.13874247       24.97072241
  499      1      20.15871693       27.13096895       24.65598528
  500      1      24.58359361       15.48635043       15.92600759
  501      1      18.89309074       13.35141867        6.32043566
  502      1       6.39474532       22.00713126        2.40295334
  503      1      18.18447129       14.04055018       23.44918259
  504      1       1.66330339       19.36834495       13.58059203
  505      1      22.38035514        0.35129348       15.23712800
  506      1      17.89517773        5.37858967       14.72318025
  507      1      16.04438675       10.05513535       17.98448059
  508      1      22.05474313        6.74898164        9.72766168
  509      1      12.91943408        9.35840701        2.68002554
  510      1      13.83649720       27.55081408       13.54191034
  511      1       3.03181212       15.59349467        4.18122220
  512      1       2.45299507       16.42348043       16.14344054
  513      1       8.68728090        8.06448371       23.83390237
  514      1       7.97332191       16.79664242       26.32941402
  515      1      17.84745666       26.60166688       22.13805422
  516      1      12.70561456        4.77290364        6.08190687
  517      1      13.18826263       23.71402859        4.66875364
  518      1       7.04923588       20.07218387       23.03741067
  519      1       1.36513807       10.16891873       12.53940164
  520      1       9.99407149        5.51277746       18.05673448
  521      1      18.61341618       25.43441210       25.40775071
  522      1      23.21433863        2.01514435        9.03609568
  523      1       3.95439566        5.51867631       10.17268289
  524      1       2.96409190       16.48579288       21.77197911
  525      1       4.09500277       12.22392426       13.52483599
  526      1      16.34713276       17.26813545       24.61715960
  527      1       2.51133170       26.57732173        0.08754262
  528      1      12.86105799       25.97562522       20.59408429
  529      1      20.91183111       18.42055804       14.34126231
  530      1       3.89624544       21.81092069       27.16176272
  531      1       4.65726332        3.32294994        6.16596973
  532      1      14.80976605        8.23760215       12.19438114
  533      1       7.31779890        7.74918640       18.15305450
  534      1       6.48812922        3.33149832        7.57385613
  535      1       4.88732995        8.18579041       24.38917521
  536      1      14.27266903        3.44534324       16.80815394
  537      1       3.24172850        3.69351389        0.49669987
  538      1      23.75381369        6.78070745        3.07266742
  539      1      18.55445371       21.17379011       17.05763362
  540      1      21.08037843       22.64212070       15.38272316
  541      1      23.71370306        3.74790241       19.34467749
  542      1       1.16700976       23.86397799       20.11426079
  543      1      12.87017603       22.97909324       23.61925696
  544      1      13.39158552       23.61152968       13.38151990
  545      1       2.61422453       25.67504979       20.00420171
  546      1       3.02638128        1.58757692        6.09917593
  547      1      24.70947285       11.73278893       22.84588765
  548      1       7.91678109       18.85704133       19.93113779
  549      1      10.87612580       19.43187773        9.96099642
  550      1       4.64417273       22.15431862       24.85613036
  551      1       3.40373477       12.60997733        6.72330566
  552      1      23.88909913        2.39842945       12.66207670
  553      1      17.63755853        6.37404399        2.52605691
  554      1      18.54473397        3.10800724       17.71327751
  555      1      17.55592152        1.82736377       25.19658408
  556      1       6.77813303        3.22336904       22.24081887
  557      1      18.98264584        1.65441672       27.30639704
  558      1      17.80349125        7.94733163        0.80041902
  559      1      23.06931324       23.29762854       19.28150722
  560      1      22.79461460       25.31316028        2.90371920
  561      1       0.12139828        7.42181822       20.12677144
  562      1       7.73539620        4.74242772        1.43864868
  563      1       0.76144938       23.78559681       12.57209684
  564      1      20.30343435       16.72480663        2.13539869
  565      1       7.54165874       11.51355051       12.07399856
  566      1      26.84298438       24.28929932        6.70702585
  567      1      26.68415580       13.07497412       19.72996817
  568      1       0.85139819        2.14627026        7.10738501
  569      1      17.36879326        3.28357276        7.19517551
  570      1      27.38465085       25.04921949       16.00177263
  571      1      20.88503517       22.04237730       25.61305274
  572      1      13.70696963       14.88229196        6.13113871
  573      1      16.89602207       20.35588865       13.50113334
  574      1      25.51090811        0.32400101       17.41701552
  575      1       2.60076530       26.98765412       22.10834568
  576      1       8.91988141       18.77079269       25.55533741
  577      1       6.26748483       24.42613377        2.38280273
  578      1      13.12840597        7.47137577       17.72093168
  579      1      14.56146443       19.61618230       21.87183846
  580      1      15.72146372        8.52422954       21.95866462
  581      1      27.17686006       21.58596453        9.60147863
  582      1      21.23428947       18.77363168       23.73788558
  583      1      23.20717975       23.76955007        4.62401012
  584      1       6.58473695       20.89091510       20.80577127
  585      1      24.43251481       15.96401155       10.10123731
  586      1      20.65546459        6.87639840       24.85769019
  587      1      14.64275564        2.02464571        9.76311485
  588      1      25.86894512        5.80596693       11.15318294
  589      1      13.55539803        9.81215567       15.12336590
  590      1      17.20896599        4.75476506       22.96692821
  591      1      21.35007759       20.22874057        7.35967134
  592      1      18.67003922       16.79858617       12.06819855
  593      1       4.88468280       14.38513209       13.00079215
  594      1      11.09041075       14.73748051        3.14633842
  595      1      20.90785048       20.34341713        3.26805116
  596      1      17.83914944       27.65154439        0.74500011
  597      1      25.36952779       26.81751962        4.65903831
  598      1       0.20535493        4.97993852       17.51899992
  599      1       7.42541000        4.36191906       14.11117339
  600      1       8.90860489        4.41162115       25.07372120
  601      1       7.56692482       14.20305759        3.07197747
  602      1      11.46317774       16.11704038        8.98713614
  603      1      12.04136541        1.86764607       23.65194896
  604      1      17.57134357        4.21125838       25.20343536
  605      1      13.72479212        6.26253108        9.20411649
  606      1       3.61549720       12.26536907       26.46545561
  607      1      17.58753112        1.65171666       12.38362301
  608      1      27.06114551       17.15520823       18.77081047
  609      1      27.62354859       26.69145183       25.07563035
  610      1      16.24704198        6.82749524       15.75310191
  611      1      25.83593609       26.45054507       21.70477391
  612      1       4.49413599       12.67991430       19.40601360
  613      1      19.49338736        9.17395921       16.39990323
  614      1      25.32123412       23.35159469       20.08522082
  615      1      11.52809092       26.53625558        4.80117938
  616      1      18.03611434       10.46128545        9.96906853
  617      1       1.99706570       19.46432420       25.07013675
  618      1      13.66959445       26.15025583       10.17503536
  619      1       9.01218186       20.82497312        7.34648279
  620      1       1.98411457       19.93893959        7.15160350
  621      1      10.69634666       19.82842504       22.20792216
  622      1       6.86112805       22.79915615       16.99112291
  623      1      11.98075101        9.47883343        7.17936771
  624      1       5.78920419        0.91659288       26.67103103
  625      1      16.77415482       15.90574501       13.29367137
  626      1      15.29684185       11.33599524        7.12039868
  627      1      22.65603936        3.92137322        7.79850551
  628      1       5.83637656        4.25570302        9.59805738
  629      1      15.94904979       16.64401769       20.21717151
  630      1      10.61052067       22.00681925       23.38364753
  631      1      16.18130979       17.68319495        2.23855897
  632      1      20.60165905       13.59071259       19.08071008
  633      1      24.38530667        6.40538332        0.74490587
  634      1       0.81507015       14.71038577       16.63469152
  635      1       1.27861660        2.85133463       24.02693638
  636      1      17.84974078       21.98949717       14.90250649
  637      1      16.90319159       26.45206108       26.67293730
  638      1       5.73533427       17.66551075       26.19284064
  639      1       9.09556254        8.80729216        0.15519951
  640      1      23.59955153       22.10655935        1.18699169
  641      1      27.50454041        3.94639973       25.57976255
  642      1      11.02153619        1.20780789        8.91610360
  643      1       9.20890628       15.10164772        4.53809365
  644      1       4.49653010       19.91350940       20.19768779
  645      1       1.38532816        2.71646752       11.14571182
  646      1      14.48738740       27.10762251       21.88328462
  647      1      19.35322845       13.75883160       25.53197048
  648      1      21.35631320       15.78527388       27.45205739
  649      1      12.38463128       15.21606983       24.89200019
  650      1      21.40327033       18.43215328       16.68130137
  651      1      20.11956899        6.53716150       19.06737056
  652      1      26.91078964        9.65819429       11.69866677
  653      1       5.22979353       14.01069906        9.29132737
  654      1      25.28336150       12.03323209       18.17774967
  655      1       8.07572865       20.87209610        3.62769009
  656      1       2.05065506       12.80048676        2.26469258
  657      1      11.97815732       13.02910336        5.97228336
  658      1       6.69695124       16.04828614        1.87828049
  659      1      26.18849724       20.39479309       26.27214835
  660      1       7.79761398       22.61864700       19.13382383
  661      1      16.27549536        7.55294702       26.67944060
  662      1      19.40917904       18.53640028        3.35001610
  663      1       0.96815519       16.24704423        0.71095485
  664      1       1.23922781       25.40312914       14.17297825
  665      1      17.17036802        9.79800524        2.40665827
  666      1      14.94616348       14.52562742       17.56253732
  667      1      12.04923204       12.60472132        3.62240969
  668      1      12.99884067       19.87283725       13.00338878
  669      1      21.15996237        9.09763179       22.08856057
  670      1      20.74167373        4.98484966        8.84460576
  671      1      24.07901447        7.56130387       19.20925230
  672      1       8.58339062       11.75399296        6.83551376
  673      1       7.53070351       13.61550603       15.31041623
  674      1      16.40401592       27.30270493        7.48718933
  675      1       1.54907867       12.81679040       10.24068293
  676      1      25.68722186       11.54494437       10.92027356
  677      1       8.23250727        4.80865080        7.06041856
  678      1      20.40528821        4.72156335       17.58721017
  679      1      10.46801707       18.60471985        0.97798224
  680      1       1.90897160       22.78804525       22.05522508
  681      1       3.38493188        2.46558224       19.76834713
  682      1      12.65840853        8.61087499        5.02707267
  683      1      19.92675340        1.97113223       21.61403494
  684      1      15.32920830       23.83500016        3.78169222
  685      1      23.29986628        9.74734540       15.90724002
  686      1       2.31534363        8.83408253        3.18369872
  687      1      22.47140096       10.17896004        2.56649481
  688      1       4.33254438       12.40386421       24.25496740
  689      1      20.74251154       26.25141919       12.36086674
  690      1       5.28882289        8.58651172       18.87322728
  691      1      16.86949949       15.39556550       18.48477295
  692      1      20.97215098       10.23822301        7.21671384
  693      1      15.62882402        5.28823574       26.21264440
  694      1      18.98983428       17.81966970        5.76227487
  695      1       1.88321054       25.51899415       25.69056730
  696      1      21.36655477        6.53894164        2.15553769
  697      1      23.55580163        8.17902662       27.11805095
  698      1      19.02508616        0.67858452        5.16433098
  699      1      21.00318256       11.79716881        3.64799181
  700      1      23.51208099        8.33097902       21.63744779
  701      1      21.15218640       27.57668940        5.20897070
  702      1      25.05730109        8.74932084        8.72806052
  703      1      10.68971350       23.08743849       21.07797976
  704      1      10.51703994        6.74386191       12.07152811
  705      1      23.10961162       21.53999623       14.93361981
  706      1      19.27716200       15.84985799       22.04079390
  707      1       0.23499730        3.13029400        3.57507040
  708      1      10.76203987       26.74080370       21.40576067
  709      1      14.97880789       19.31360501       14.34171431
  710      1      16.40980610       27.59305411       20.59583043
  711      1      23.32558649        4.47136450       25.61415203
  712      1      14.53570555       17.38738304        0.44681504
  713      1       8.69676292        0.54276421       24.11753164
  714      1       5.42519250       17.69303347       14.61825895
  715      1       2.44259179        6.49588218       19.92412715
  716      1      16.29406748       20.08010980        9.79085291
  717      1      10.16883945       18.98389837        6.31688388
  718      1       1.37931446       27.57456349       13.38656356
  719      1      11.35388912       10.68568462       25.47828137
  720      1      25.45840672       19.59886705       15.92549105
  721      1       1.93381515       20.10518414       17.95181841
  722      1      19.14912512        2.61108394        3.81816818
  723      1       3.75496520       10.11823787       27.34096347
  724      1      24.03520822        4.81028467        4.28413850
  725      1      12.31017892       11.81405460       27.42012665
  726      1      10.07674595       13.35924152       20.26355116
  727      1      23.34743872        8.84521399        4.28280858
  728      1      13.70856511        1.92973121        5.97036798
  729      1      23.42887373        7.29847198        7.91614755
  730      1       0.20305891       16.09883127       24.29321901
  731      1      26.72235734        2.70829917        5.61816952
  732      1       0.37674750       21.25438029       25.10918798
  733      1      26.29280368        4.41844398       19.31008378
  734      1       7.12549682       17.87271454       17.90931371
  735      1       1.48498396       11.55976096        5.99866189
  736      1      19.22962134        2.08001931       14.20580147
  737      1       7.71826805        1.83798062       20.40852959
  738      1      20.97627734       14.35036644        6.46517867
  739      1      12.90365762       11.53590450        7.50726977
  740      1      13.76865352       18.66817533        7.79071556
  741      1      23.20389952       14.52943779        2.86293355
  742      1      19.13015510       11.49435060       15.94920441
  743      1       8.21631882       13.60858885       18.82692813
  744      1      22.95066299        6.79970358       25.24718680
  745      1       7.03281393       21.75430455       24.67892448
  746      1       3.36513686       21.35310839       10.62528788
  747      1       0.96326757        0.51094625       23.51233964
  748      1       6.06831325        8.73928318        2.52210343
  749      1       5.70373055       17.29442748       10.81978408
  750      1       9.99813343       26.22619824        6.54615541
  751      1      18.49930111       19.50389018        9.51416487
  752      1       9.22201525        1.72433952        0.06872518
  753      1      22.65706561        2.60486437       15.75348776
  754      1       3.74693500       20.23332802       23.85118689
  755      1      15.73871388        3.36280080        5.43428747
  756      1       7.13620475       18.86266436        4.44403198
  757      1      23.15862685       17.07081331       27.10436527
  758      1       3.80712420       20.24808762       12.69841505
  759      1      25.64871485        9.66047803       26.44471679
  760      1       8.80469730        8.95446178        9.38644761
  761      1       0.13499779       17.96371786       12.22197974
  762      1       3.13759287       17.16881043       13.97677278
  763      1      10.97568618       19.67743964       14.39982010
  764      1       7.43522234        1.66616239        3.64976318
  765      1       2.61865282       15.04259104        1.97261482
  766      1       3.73659233       17.75387370        4.14030987
  767      1      19.10878804       18.66819493       19.56611187
  768      1      14.60821958       18.11328116       25.88794423
  769      1      18.53902913       23.02430634       20.84938331
  770      1      17.12579124       16.50237960        6.51796801
  771      1      20.71101368        8.83787836       18.42464920
  772      1      24.39764056       13.15680647       16.24846977
  773      1       8.65741813       23.35739816       24.15950031
  774      1      14.03086301        1.90568223       18.61672613
  775      1      20.12422528        2.69363512        1.55747695
  776      1      10.46507355        7.18655912        9.73940506
  777      1      20.61619397        5.54610145       21.12864653
  778      1      15.60245986        2.88382075       12.90570929
  779      1      13.28367296       11.82060315       11.16741686
  780      1      19.45336554        9.08556899        8.73879059
  781      1       7.40788430       26.92191424       16.25303668
  782      1       4.80062134        7.68207914       10.01241032
  783      1      24.51985815       26.80295233        2.53704235
  784      1       3.64363219        5.99832264        0.48149264
  785      1       3.72894095        5.13444899       22.99080259
  786      1      13.57741034       23.57951357       17.65774269
  787      1       7.20047213        6.90895386        6.79029099
  788      1       9.80716316       13.69905559        6.35240786
  789      1       4.96476226        1.93527088       23.26363886
  790      1      27.25073598        2.16787605       20.28776539
  791      1      22.08233060       15.38903423       10.04341297
  792      1      21.52839446       13.49610755        8.66486601
  793      1       6.55219435       11.87940336       23.70180010
  794      1      23.97463795       12.20523089        6.03591334
  795      1       6.11802060       26.17174723       19.22293047
  796      1      27.47268129       25.05821035        2.42681059
  797      1      25.00707376       15.16328084       12.27608951
  798      1      25.75011348       13.68607164       21.91729335
  799      1      15.13699462       25.40738291        2.15627697
  800      1       4.52742008       14.24786153        5.44169229
  801      1      10.12813141        6.20556712       24.04030196
  802      1      10.68716570        7.48592026        4.33827133
  803      1      26.46033491        6.50660879       16.41661323
  804      1      20.06054458       20.87212697       23.67869853
  805      1       9.48675693       22.95144166       12.91789493
  806      1      21.07619854       23.60105053        5.93311079
  807      1       1.85781226        9.26398244       26.46399428
  808      1      10.75915539        3.39631449       17.69788091
  809      1      21.07076973        3.65820057       14.30084439
  810      1      21.01706303       20.09448453       26.94909439
  811      1      27.56976396        6.27856319        4.93205732
  812      1       8.53199870       16.99871123       21.53376394
  813      1      15.87798309        5.96687273        8.21346739
  814      1      16.55486834       11.82372155       26.78461235
  815      1       8.51574107       14.61663898       25.43094339
  816      1       7.57728731       24.64869229       22.53001988
  817      1      26.44247038        7.90175518       24.82591271
  818      1      14.56290137       10.94959101        0.05605639
  819      1      11.66973610        3.03063722       12.16020988
  820      1      10.83969708       12.37214487       14.42518232
  821      1       1.40339158       18.36344933       19.41818657
  822      1      13.77387111       21.02395487        7.66331050
  823      1       0.76399730       11.35056142       19.84771351
  824      1       0.75588764        3.63334955        8.99238997
  825      1      10.32558715       14.69725210        0.94103869
  826      1      27.40395124       23.87648280        8.90791714
  827      1       6.17762571        5.21855048       15.94948465
  828      1       0.86826662        0.91223671        2.96755128
  829      1       5.90362524        5.62365959       22.08637594
  830      1       8.82503243        9.61660123       11.74513755
  831      1      26.66136822       10.92635508        3.43068628
  832      1      19.62624548       11.25024284        5.48714055
  833      1       2.21324517        5.40272320        8.51431329
  834      1      15.51483765        0.01637141       15.22491886
  835      1       4.14059168        0.92466827       21.36548110
  836      1      25.89541282       12.28125906        1.67147141
  837      1       8.37498592       24.62999303        5.70593657
  838      1       2.66588687        4.45008008       21.01353444
  839      1       8.02582749       24.58696388       15.93278138
  840      1      22.01987120       26.73948274       19.79883994
  841      1      22.19408586       23.20971633       21.45763379
  842      1      10.33257053       15.33409464       21.63843205
  843      1       5.23093345       18.86226597        0.52193734
  844      1      12.28862970       10.17281190       20.45463035
  845      1      25.00621628       15.69772159       26.57367520
  846      1      13.27792024       24.79848885       24.94441201
  847      1       2.23471547        0.53231042       11.18411322
  848      1      24.35422786       15.54685108       22.71415053
  849      1       5.89504243       23.22043995       12.80809617
  850      1      19.14764223        7.95722094       12.46881056
  851      1      17.50824786       21.45636750        1.81270649
  852      1      15.66382722        2.41130034       15.21361245
  853      1      16.74201608       10.68553280       24.64284636
  854      1      15.33917550       13.20347656        5.57863577
  855      1      11.67880082        2.32905104       19.61282745
  856      1      11.38280573       22.55076530       17.31391277
  857      1       1.91031308        8.46360372       14.13190531
  858      1      23.20478703        0.79139153       22.86892062
  859      1       6.83529773       21.03174265       15.45620880
  860      1       9.02904156        4.32431665        4.98816463
  861      1      10.44914730       24.36671828       15.97842955
  862      1       3.34517689        5.24212156        6.34557668
  863      1      14.26894341        1.48945410       23.20918596
  864      1      20.22146197       10.24513448       20.27940426
  865      1      18.52488930       12.40347193       13.77128742
  866      1      27.24591616       26.38926952       17.89034550
  867      1       6.81757638        8.16152951        0.34708713
  868      1      11.05979619        5.25457322        4.48959942
  869      1      22.74144157        0.30889536       27.23013075
  870      1      23.38009957       16.98057722       17.34630382
  871      1      20.98350642        4.70287156        0.59862024
  872      1       5.25545244        8.59743705       12.10668808
  873      1      25.03611894       10.07875511       21.28707362
  874      1      13.85791111       16.37207580       16.62749677
  875      1       3.40986448       17.01454189       10.19547140
  876      1       4.34816168       15.20348336       16.74583309
  877      1      21.87448454       13.82567470        0.98377076
  878      1       2.98871774        0.86984287       14.81762795
  879      1       3.14467566        6.60157904        2.79631647
  880      1      26.13462786       27.65423010        9.25880257
  881      1       6.77301636       11.29573903       15.97736436
  882      1      15.11356720       18.44102784        4.22229628
  883      1      22.95874945        9.28322150       18.16617481
  884      1      13.81076694        5.81485873        1.94598080
  885      1       5.27338148       26.30639078       10.82810707
  886      1       2.74816436        7.05704091       24.06619135
  887      1       0.38831750       27.65761411        7.86364594
  888      1       1.96535781       24.54881732        9.13685335
  889      1      18.81405773       17.23276764        9.78557388
  890      1      22.48329992       16.71428865        3.04396818
  891      1       1.58442812       15.56068963       26.23835717
  892      1      12.26516820       16.59134013       21.02914998
  893      1      13.65338792       21.87206873       11.76919276
  894      1      25.89063343       25.76488471        0.61459636
  895      1      12.17140080       27.18121428       27.40934976
  896      1       2.85096450       13.80704685        8.64952307
  897      1      19.54624156       26.06295221       14.54630357
  898      1       2.97265443        8.83768712        9.04906841
  899      1      22.83710463        4.42022061       21.45353318
  900      1      25.23686555       26.61924115       13.30713210
  901      1      17.54494949        7.22710146       22.93004249
  902      1      20.80241267       23.91309551       11.80643836
  903      1      17.15340790       25.90586001       14.41803302
  904      1      26.68996197        6.00264708        0.90832707
  905      1      17.73828297       14.37996527       14.77061203
  906      1      14.26894560        8.75029490       27.02471167
  907      1      17.13135316       26.89455805       18.35770108
  908      1      23.93583201       27.62468535       20.79590093
  909      1       0.62941565        2.81861235       16.74937494
  910      1      11.30633944       26.47807186       16.64658595
  911      1       9.60367814       26.08670250        2.08749422
  912      1      26.77091811        7.83099267       10.13588408
  913      1       6.04055168        2.49285839       10.93686599
  914      1      20.40005725        7.80905442       14.65128557
  915      1      22.06737813       26.47499744       23.58300359
  916      1       6.76336212       11.31735083        5.39606258
  917      1      24.57868695       22.20133453        3.35470118
  918      1      22.21299901       20.22151004        1.31549204
  919      1      26.52185758       10.09072258       17.36314878
  920      1       5.37125408        7.34410509       15.49313011
  921      1      11.35449088       12.06722002       23.54613762
  922      1       8.88727216       20.88891377       13.99253744
  923      1      13.58007804        5.22903911       22.61226871
  924      1      17.54044666        8.51019871       24.94386681
  925      1      17.28182264       24.52472601        5.17333486
  926      1      26.11907726       14.99625256        8.65762238
  927      1       5.72312647       18.80404228       12.58533845
  928      1      11.69200698       27.63074965       14.47862417
  929      1      16.47746511       12.01888837        9.06090927
  930      1      13.65621726        1.25734676       26.74487430
  931      1      17.58808782       19.21337597       17.75644476
  932      1      19.64417027        1.15824948        9.32122656
  933      1       3.49520830       13.04044389       17.26588830
  934      1      20.01978551        4.41437055        5.03569524
  935      1       2.24017809       26.91707451        9.07811090
  936      1      20.96986790       15.75796388       20.13186824
  937      1      15.46158625        7.28424885        3.07508637
  938      1      14.92334214       10.60377057        2.32834845
  939      1      22.40401602       11.94994171       12.95535711
  940      1      14.68618045       11.80070175       14.41253985
  941      1       8.15336054       22.20832847        5.58812288
  942      1      15.69102461       17.17101417       15.15088468
  943      1       5.71957472       21.98811225        5.76986695
  944      1      12.64327569        7.77944609       19.96680161
  945      1      12.23848497        2.12820843        2.35544696
  946      1      26.10989520        4.26335494        9.43691329
  947      1      15.44649488        0.51123197       25.32257704
  948      1      12.49458807        8.26359756        9.17975937
  949      1      15.41716816       22.30277584       18.78405002
  950      1      21.39719725        3.23741361       24.96139863
  951      1      25.24789999       20.73281298        8.52277695
  952      1      10.38262956       21.65624249        9.22824857
  953      1       8.71902361        9.45685467       21.82867831
  954      1      18.02109784        7.48341350        7.46529067
  955      1       9.97771396        2.73989910       10.34167139
  956      1      23.68241824        8.02160986       12.75419029
  957      1      21.06184229       15.20997309       25.17386630
  958      1      13.46557359       21.70200962       27.04883777
  959      1      13.60411932       24.45056139        8.58881726
  960      1      15.17543891       15.95552801        9.73859564
  961      1       9.65207839       13.39203007        9.94250654
  962      1      21.03963132       17.13114805        8.93299309
  963      1      26.94805088        2.40767646       12.20875230
  964      1       6.10188413       27.12808458        6.82119297
  965      1       8.62078251       14.68198696       11.73542192
  966      1       8.00092487       20.86108509       26.60341446
  967      1       7.38813204        8.89981370       15.44970917
  968      1      18.37635494       11.28237878        0.75042061
  969      1       4.53072200        7.48465662       20.75605599
  970      1      11.74316852       13.19144096       18.54345833
  971      1      26.23633799       21.30591405       19.43801063
  972      1       0.34845185        8.06473579        6.46789507
  973      1      18.34323381       11.68461291       23.10915588
  974      1       4.59642859       22.90441432       17.68167923
  975      1      11.23411173       10.03486531       14.66293392
  976      1      25.10775531        1.50820294       24.06644262
  977      1      19.75189325       22.41374150       13.40933452
  978      1      25.90978924       12.30136705       14.71329252
  979      1      17.17554481       27.25787530       11.17884324
  980      1       0.94290121        0.69535842        0.58854704
  981      1      14.17643642       11.58320766       20.73111873
  982      1      23.23222678       25.91840253        7.70204892
  983      1      15.17793859        3.45586076       22.26643939
  984      1      24.25627367       13.50907162       25.81893084
  985      1      12.78307760       17.36610009       18.68952482
  986      1      25.82932237        4.86034087        5.74604316
  987      1      14.85931428        5.76158566       17.36796176
  988      1      11.56215442       19.83110678        4.62026584
  989      1       3.56887900        3.27238902        2.89044542
  990      1       8.61555291       17.31787053        5.54829354
  991      1      25.80488197       13.60102036        6.50915108
  992      1       3.94155227       23.65484370       23.14431882
  993      1      17.57393680       16.96295918       16.76313316
  994      1      13.29909050       25.51501437        6.26728701
  995      1      22.37175703       13.34808994        4.74567213
  996      1      24.47676886       18.55591151       13.84389216
  997      1      19.20876570       25.26593728       20.87556220
  998      1      12.24918022        5.31513102       12.54757693
  999      1      14.31560390        2.16486669        1.08375122
 1000      1      18.07417379        9.65409602        4.69858955
