run_id:  1021  total_energy:   -3026.9637268598376

  1000 atoms
  1 atom types
  0.0   27.664  xlo xhi
  0.0   27.664  ylo yhi
  0.0   27.664  zlo zhi

 Atoms

    1      1       0.05339696       18.71769614        6.74550183
    2      1      14.68828384       18.60347733       19.58277465
    3      1      19.84922498       15.23491446       15.83394702
    4      1      17.40186361        8.36916887       17.15163310
    5      1      12.81170602       12.83011193       13.23730939
    6      1       8.86596823       16.62549952        0.74753733
    7      1      13.88466221       23.97856649       27.00697991
    8      1      24.69630044       22.87804230       12.49318462
    9      1       0.70377558       26.02549508        6.13609900
   10      1      26.82122693       27.54974730       27.09385863
   11      1      26.29146409       24.03543107       26.51366641
   12      1      24.70405252       12.79532799       12.51077434
   13      1      11.73257902       16.39658856       11.40795929
   14      1       8.84779238        2.80973019       23.48230050
   15      1      22.25338249       12.28948588       22.76539428
   16      1      16.01406086       21.59879726        8.01950459
   17      1      22.74183193       17.44009738        5.20942331
   18      1       5.66564631        9.40151058       26.44878032
   19      1      24.94311029       10.32048246        5.00065912
   20      1       8.76108037       12.93163931        1.26858728
   21      1      25.67987405       18.06908440        1.76272305
   22      1       2.98161981       23.63655042        7.24650897
   23      1       4.99007240        2.32613472       18.02141867
   24      1      10.43263570       14.38782074       23.83510502
   25      1       0.45899488       14.91611798       19.11911094
   26      1      27.22873898        9.56356101       21.09593389
   27      1      12.92704083       18.18241724        3.64047326
   28      1      22.33728660       19.11171587        9.28833732
   29      1      17.69537942        3.23979558       15.57220666
   30      1      27.34417006       22.36137200        5.60090708
   31      1       4.76201526       21.78325067       14.28346178
   32      1      16.69468599       18.85031567       22.82268795
   33      1      16.97059758        2.93167333        3.35753395
   34      1       9.64950944       16.73887571       12.35401998
   35      1       8.23102832        6.10338273       12.57946811
   36      1      15.77304908       27.18930029        3.61614217
   37      1      10.63901693        6.60188662       20.14442336
   38      1       7.03762893       26.96944553       23.10214520
   39      1      21.82483014        2.80734907       18.11599078
   40      1      10.74051646        0.54348754        1.36894551
   41      1      10.90830141        7.16907460        0.01601361
   42      1      10.57444576       25.34467467        8.72220484
   43      1       4.34049514        0.76837286       11.55682554
   44      1       8.93452139       18.78280204       23.16002739
   45      1       1.37386619       13.18824275       26.39296289
   46      1      23.71817474       11.09252713       19.37342901
   47      1      14.35350645        7.68717528       14.49347253
   48      1       6.82203939        4.91946477       25.81357483
   49      1      14.99776777       20.38848629       25.91220182
   50      1       9.77985769        4.83204106        9.02976525
   51      1       1.44413361       18.43657503        1.08466637
   52      1       7.45151213        2.65232525        1.32102883
   53      1      24.52442713       19.94492448       22.68102584
   54      1       0.14622076       21.46423437       13.44452586
   55      1       6.82551057       21.94608603       11.10523084
   56      1       4.65098791       24.51161001       19.64563601
   57      1       1.93689458       18.76192007        3.35412575
   58      1       5.75988068       11.73538647        9.33645578
   59      1      27.17299706       11.74138591        7.28271766
   60      1      23.36637707        4.40023528        0.17295668
   61      1       2.38142032        3.08394009       15.35731752
   62      1      18.79073198        0.72046395       23.31294360
   63      1       8.13145112       11.68361845        9.30215501
   64      1       5.39424883       27.58811732       17.45754133
   65      1      20.46169689       21.78024375       21.55546337
   66      1       7.12924808        5.28611842        3.75007835
   67      1      15.96336037       13.23283005       15.92601638
   68      1      24.25520754        7.24308853       23.46093591
   69      1       0.13158388       12.41093391       24.59266295
   70      1       7.15950562        3.00994566       18.52179822
   71      1      10.38939836       17.39577241       14.62686731
   72      1      13.73345654        9.74024982       17.35658317
   73      1      13.31812522       21.09136086        1.56365298
   74      1      24.63521488        3.54014552       15.51786963
   75      1      26.30661282        1.82179756       15.96488143
   76      1       2.58644793       10.67302277       10.66830759
   77      1       2.54722221       23.55915322       11.23045551
   78      1       7.64953731       20.00826047       12.20063963
   79      1       3.84877923       16.79148699        7.79026287
   80      1      23.70964331       26.54568781       16.69219908
   81      1       7.00150587        7.53690378        9.06073661
   82      1      18.80171329        4.00788601       21.35540288
   83      1      11.05661093       18.96760140       26.25490581
   84      1      14.77536645       27.39959717        5.83084092
   85      1       0.72917869       21.98289941       18.60011551
   86      1       5.70146608       17.88981535        2.76258704
   87      1      26.85931193       25.13407784       19.97234251
   88      1       9.56476013       14.99668349        8.27101976
   89      1      25.23137688        3.80556921       24.43000224
   90      1      24.26952190        5.93331854       16.03023041
   91      1      11.87349428        4.50711607        2.49349269
   92      1      25.67305427        8.47933712       13.22010645
   93      1      19.95525264        0.42566326       15.66232593
   94      1      16.10355773       10.28489930       20.31999248
   95      1      22.79608318       14.28382402       24.01242244
   96      1      17.74877174       20.83182368       23.70529318
   97      1      10.12495380       19.80246693       19.80575784
   98      1      12.98199803        9.47092800       11.24822834
   99      1      25.66483178        9.97656868       15.11930554
  100      1      27.26479274        6.27618882       26.09423404
  101      1      22.71804438       11.63967210        7.94199631
  102      1      15.04294891       26.02985698       24.00418430
  103      1       8.97704699       14.70418584       16.86009089
  104      1      18.96132552       22.90707803        5.02381324
  105      1      17.93422578       26.50604960        4.10896152
  106      1       2.95846690       25.45102522        5.82941087
  107      1       9.66083632       10.03344793       18.15787048
  108      1      11.24498218        5.34605622       22.14219440
  109      1      23.84841271        1.42675911        2.52719280
  110      1      16.06370370       24.52111444        0.01002492
  111      1      13.85767179       13.64968910       19.46347820
  112      1       1.78583088       15.65030031        7.46272861
  113      1      11.07817368        6.93776250       16.53925400
  114      1      12.95519626        7.76247903        0.99073149
  115      1      23.75994938       24.43072575        9.46396041
  116      1      17.20080277       14.61880767        5.20005907
  117      1      19.82710672        4.87404232       25.92115691
  118      1       8.63868741        2.38779943       14.76829561
  119      1      18.92335786       19.02477648       12.97875733
  120      1       8.86963237        2.13818809       17.11085844
  121      1      12.54417905        5.89735422       14.83995803
  122      1      18.13777216       15.18306154       27.05269502
  123      1      26.93249949       14.24302912        4.53885893
  124      1       5.81070129       19.24813742       16.50475740
  125      1      14.48346479        6.81750064       21.03616642
  126      1       2.63708422       12.32430207       20.95703186
  127      1      19.65818325        6.29867223        3.69168888
  128      1      11.11091935       13.94920249       16.26974246
  129      1      20.92366131       16.69712617        6.54061639
  130      1      14.95520467       22.22718414       20.95444455
  131      1       5.10827092       11.00202292        7.10971978
  132      1      14.91548014       17.23563025        6.22527637
  133      1      25.02100275       25.09460218       15.36305891
  134      1      16.87849499       22.75236984       22.47440772
  135      1       5.21999387       23.18294563        7.68511381
  136      1       6.10046341       20.94221543        0.37561322
  137      1       9.50458020        2.02389639        5.00771715
  138      1       3.06050553       19.40013285       27.34270438
  139      1       6.21444645       14.99321710       11.23929968
  140      1      13.03245900       15.83484530        3.85678449
  141      1       9.64792536       24.45294401       26.15330868
  142      1      26.64833353        0.68671516       13.88239067
  143      1       9.23040362        9.69620525       25.62538751
  144      1       3.88861650        9.04368313        6.85252624
  145      1      16.94797766       23.49639068       11.04052291
  146      1      21.59536479        8.58430094        0.97311785
  147      1       1.86591362       21.84748886        5.98160017
  148      1      11.40753704       26.90082705       10.30230420
  149      1      13.73560964        1.84131969       12.01236122
  150      1       7.34842245        1.18632238        7.95430363
  151      1       0.17328946       12.15309690        0.47022132
  152      1      27.65480354        9.14001483        2.32662331
  153      1      15.45386765       20.63680682        4.76578831
  154      1       7.83631225       25.62325575        3.70780282
  155      1      14.09478089       14.40451230       23.36994965
  156      1      24.79292340       17.61118868       19.23916776
  157      1       2.13878082       24.84549060        1.72530995
  158      1       8.84306867        8.26211171        5.52790813
  159      1       1.18844312       14.13185707       12.25544035
  160      1       3.64930375        6.11618728       25.75035147
  161      1       4.25734358       20.61649284       17.94577807
  162      1       5.53862623       16.37055349       18.49551870
  163      1       4.99363984        1.16815146       13.83765852
  164      1       0.62931459        6.34839862       14.32427000
  165      1      13.34341403       14.87334626        8.57384027
  166      1      19.44389936       23.58595694       26.71280410
  167      1       5.79426540       15.23092582       14.88942638
  168      1      11.03955523       18.64540745       17.93887230
  169      1      14.65151172       18.28513216        9.87010382
  170      1      26.58329173        7.21705721        2.96012320
  171      1      11.54155752       24.46454226        2.79434768
  172      1      20.62050678       15.35696042       12.03697538
  173      1       7.32403503       17.94140718        9.32582457
  174      1       1.76511562       14.47724095       21.32493957
  175      1      16.36250502        9.18520223        6.29121406
  176      1       2.28173314       21.06571244        3.71942437
  177      1      18.10172921       13.57910979        8.53003151
  178      1      25.75028184       23.31843358       22.61478137
  179      1      11.50672978       18.24399170        8.07547158
  180      1      25.59370929       18.04239256        4.04556905
  181      1       8.23302910       25.27076151       19.05842339
  182      1      22.65088686       20.99185222       18.74158927
  183      1      15.40773344       21.76263686        2.76697587
  184      1      21.17857102       26.88357366        2.91956592
  185      1      24.96172321        1.50437713       19.45813310
  186      1      21.87594709        8.35755453        6.06770176
  187      1       0.87352047       23.33244628       26.26298301
  188      1      12.58722777       18.44828825       22.55210828
  189      1      17.46669145       22.59878231       27.41072705
  190      1      14.95240886        5.52730179        6.12291909
  191      1      14.17192858       25.59723637       12.41019192
  192      1      10.85242821        3.07839230       22.04592881
  193      1      25.78376685       25.27285496       24.08316377
  194      1      21.84745000        0.98209983        1.58134756
  195      1      10.36647249        3.53315629       26.80723847
  196      1      18.03456272       24.72806994       17.53241506
  197      1      21.33743059       20.60074962       16.93195199
  198      1      16.43381788       25.41383425       12.36316168
  199      1       3.36147198       26.91477335       16.48758898
  200      1       1.20735755       18.05813272       10.19751384
  201      1       4.08173606       15.81984153       26.27230928
  202      1      16.03685156        5.82898724       19.39689481
  203      1      21.94627757       20.53335601       11.20922644
  204      1       3.79783929       24.82540329        3.52021937
  205      1      18.33603930        5.68458666       12.34964752
  206      1       9.30022410       10.61559900        1.90084560
  207      1      26.75962864        5.57552813       21.29350504
  208      1      26.33522400        7.96814411       18.23655628
  209      1      24.95484831        4.04709706       13.29359694
  210      1      12.98591740        9.01121710       25.10404062
  211      1       4.61009848        9.08764345       22.60472439
  212      1      24.83089674       22.20038200       26.74808833
  213      1       0.21743738       17.80452184        4.67869970
  214      1      23.19709663       16.72251481       20.92434637
  215      1      13.16300570       25.93319419       18.15208238
  216      1      14.15789205       15.30445487       21.15564286
  217      1      26.30012630       15.94375017        0.95603378
  218      1       5.68281892        2.86968608       27.26390404
  219      1       3.80513508       18.56467571        6.32820128
  220      1      20.47452589       10.75049875       23.73128836
  221      1       9.93036762       22.32819669       27.26543783
  222      1      11.40615967       26.00002909       25.51682682
  223      1       1.09199564       12.22422703       13.70235930
  224      1       9.75770229        8.88744571       16.12863599
  225      1      17.26073352        3.81156071       19.58728883
  226      1      16.53974540       11.42154243       12.90000753
  227      1      25.50965903       14.41193889        2.56661111
  228      1       6.46881012        6.06097604        0.22475454
  229      1      13.66271801       12.09381731       22.96560374
  230      1      26.74197717       20.20635281       21.62693223
  231      1       7.61780523        5.62328242       10.30559447
  232      1      22.42541825       19.82628395       13.49008177
  233      1       5.35592077       11.40925760        2.26385110
  234      1       1.15126239       19.03341671       21.64977328
  235      1      21.38349030       16.10388497       14.07456207
  236      1       1.77424509       27.05525726       18.28376257
  237      1      17.06474561       24.92566822       23.61284932
  238      1      20.08965921       24.02126785        1.28655699
  239      1      14.22941942        6.09104227       11.47195084
  240      1      22.23213496       25.18500033       17.97513000
  241      1      14.68316880        9.99966696       23.65573888
  242      1      19.52277294        7.82732963        5.36576318
  243      1       5.43424378       18.66707218       23.77173080
  244      1      24.92998906        2.75354765        0.83411452
  245      1      12.16133046       12.84302745        9.43115183
  246      1       6.86714580       24.96808390        7.53844232
  247      1      19.01686366        5.04383689        7.10228663
  248      1      12.14472610        3.67103614       15.86143929
  249      1      22.43492662        9.88096725       11.49157417
  250      1       1.37159556       18.88264628       16.11931729
  251      1      16.09057832       14.18313792       26.57347931
  252      1       3.07131514        1.16272545        3.79267371
  253      1       5.40977426       12.85168223        0.25945806
  254      1       5.74156185       23.49179696       21.55834863
  255      1      11.91745390        6.85722803       25.49306744
  256      1       1.02302637       15.67974130        5.18605137
  257      1      24.51918858        0.23960677        7.66145924
  258      1      24.65361423        5.18583374        7.63961281
  259      1      15.46855965       27.56328644        9.59949659
  260      1      23.41608892       18.16391002        1.42125720
  261      1      21.17427488       19.96804742       20.30220480
  262      1      25.55036877       16.73723720       24.53563214
  263      1      24.95410001        1.24580391       26.61088312
  264      1      19.94044931       16.92373129       24.06036070
  265      1      12.83665885       18.72509549        1.45085866
  266      1      17.49583204       21.22745755        6.12713529
  267      1       7.40087898       26.67155593       10.79381484
  268      1       9.33719918       25.00596573       21.09852064
  269      1       6.90290131       19.92714905        8.24998008
  270      1       5.40325924       21.50975792        9.36476419
  271      1      16.42838431        3.64770682        9.47236201
  272      1       4.82425182       10.94581802       11.66263744
  273      1      21.76779966       12.04530917       20.34137068
  274      1      15.96599009       21.49055426       11.68834663
  275      1      27.52067289        9.83884578        0.01428689
  276      1      22.29031587        3.83961719        5.30765045
  277      1      17.86685415        7.26736831       19.14064376
  278      1       4.88943801       17.14455196       21.99983112
  279      1       8.86276070       22.96192511       10.58217720
  280      1      20.23798151       24.76565389       16.41743661
  281      1       9.71717798        9.62744613        7.20232804
  282      1      26.80019706        0.88106094       22.37856720
  283      1       2.11979261        5.08213232        4.19154489
  284      1      20.92053211        1.12774695       26.02068301
  285      1       2.62808393        5.89196634       17.63821733
  286      1      22.75628793        7.72048736       14.80766506
  287      1      15.49716364       12.62333566       11.14960774
  288      1       4.41510986       14.65524230       24.26926039
  289      1       1.28675430       10.45516746       24.20141138
  290      1      21.43697120       25.38275274       21.61754534
  291      1      10.37038915       11.25180540       21.56284748
  292      1       4.11486941        4.11650577       16.66907247
  293      1       2.89641081       20.63480791       21.75664850
  294      1      23.48760662       25.70356633       27.16761620
  295      1      20.68323931        1.03625472       19.44855423
  296      1       0.08006196       14.15602005       23.00040111
  297      1      17.87358332       17.57634438       21.22844501
  298      1      14.31312079       15.05321427        0.24908761
  299      1       0.09144278        8.76998628       23.25325853
  300      1       4.84694022       26.91984818        0.61311883
  301      1      19.45968720       25.41670484        8.40300363
  302      1      14.68626304       14.68748287        2.50089726
  303      1       7.28660689       11.00754821       25.64229706
  304      1      17.28928899        4.34411241        1.54533808
  305      1      19.93055276        7.18966133       22.57403819
  306      1      16.78661173       23.88151443       15.62359945
  307      1       3.19399528       10.68188619        1.92574213
  308      1       1.54188191       20.29274424        9.48616698
  309      1       9.46721900        0.84327056        7.10341239
  310      1      25.08052009        1.08074283        5.62972165
  311      1      20.16273064       16.94934821       18.17426190
  312      1       1.17431481        2.98636088       27.55850689
  313      1       3.09157923       10.92986469       22.84146925
  314      1      23.79923547       22.18845165       23.00363433
  315      1       1.36328381        1.64308009       18.83399407
  316      1      14.86049512       27.49458838       17.59016687
  317      1      13.23793298       21.43357880        5.45089594
  318      1      25.62912380       18.97600715       11.93422357
  319      1      24.62322701       18.47489600        9.76757577
  320      1       4.18025226       24.79987951       12.40018891
  321      1       7.71016899       24.36136392       13.66964747
  322      1      12.54635040       17.65467911       24.84825437
  323      1       2.04228033        9.36583485        5.45871356
  324      1      20.28645644       13.02963106       12.24061730
  325      1       9.88994719        0.73806997       19.98984142
  326      1      24.00447657       22.64946349        7.95619278
  327      1       8.26446607       26.48567864       12.87464350
  328      1      23.36726815        6.09835482       11.32345353
  329      1      14.86981535        7.68209340        5.24352576
  330      1      21.72722838       22.37600675        7.57715245
  331      1      23.77479702       16.26498592       13.90478449
  332      1       3.80952650        5.19935489       12.61468298
  333      1      22.58552713       18.79809120       21.81227455
  334      1       0.66782103        3.87737047       21.87887139
  335      1      10.97651976        2.24875956       14.29555482
  336      1      26.21057147       21.20362007       11.81198181
  337      1      19.61540811       20.45366208       11.18770300
  338      1      24.78792287        5.21235055       22.57759900
  339      1      20.04231789        4.36461005       11.09712168
  340      1      19.07497328       19.72964613        7.10990668
  341      1       8.72556859       13.07661801       13.44099959
  342      1      11.55565756       11.06870566        1.94014770
  343      1      18.73519140       19.19128893       27.05217456
  344      1      27.02741512       15.73459321       15.39818459
  345      1       3.53788701       25.87062152       23.98868431
  346      1      10.08021047       22.01705027       19.17742715
  347      1      23.99119791       10.97999574        0.78383386
  348      1      13.52560570        5.12192080       25.08898063
  349      1      26.28439024        6.13899153       13.08858134
  350      1      26.22122238        9.61685747        6.79440491
  351      1      18.24045534        1.09512721        7.27921626
  352      1      26.88437873       22.89081149        3.31619483
  353      1       8.17168820        0.21159011       26.50286425
  354      1      12.94341135        2.29193690        8.29473622
  355      1      19.74549227        9.00546441       25.42253889
  356      1      16.11575887       14.92754133       24.32266474
  357      1      19.74135887       12.46150282        9.99480696
  358      1      18.19889954       13.30447853       19.13114882
  359      1      22.64001438       18.82717446       25.62585445
  360      1      25.86129990       25.30376340        9.98891406
  361      1      15.15951363        4.37570310        0.66183097
  362      1      12.43617231        3.02375735       25.72757841
  363      1      10.17603918       20.38142151        2.76906770
  364      1      26.08471451       24.75143968       12.15888471
  365      1      16.20767647        1.14153457        2.10372561
  366      1      18.95933314        0.77183329       17.84391954
  367      1       6.80847177        6.68318742       24.07861088
  368      1       6.65534877       15.69518351       21.71265476
  369      1       8.45988086       25.80823652       27.64540351
  370      1      15.55688383       20.09505332       18.02652957
  371      1      10.86886961       27.48136841       23.73372021
  372      1      27.06466924        3.74776938        1.35871063
  373      1      23.13885834        5.84944953       18.10582135
  374      1      14.42560392       12.63018789        3.47842270
  375      1      16.84016473       15.49827854        2.97643741
  376      1       6.20559221       14.49747201       19.73759263
  377      1      26.16693839       20.46781678        6.41899986
  378      1       9.04212178        8.37486688       19.81855402
  379      1       4.04165193        7.38129137       13.58038519
  380      1      27.03281501       12.79113566        9.43299648
  381      1      24.74376438       19.92641630       18.41796104
  382      1      12.71219242       22.32029180        9.46392939
  383      1      13.02479125       23.69873278       21.29566367
  384      1      23.85841336       10.51317758        9.67511833
  385      1      18.10888256       11.41050292       20.73400467
  386      1      14.28286283       20.62114691       16.10477567
  387      1       5.81928565       19.66083428        6.21561078
  388      1      27.11987059       19.71957870        0.82456850
  389      1       4.16070653       17.77509836       19.89981766
  390      1       1.17358091       10.94069177       17.55213519
  391      1      11.12679825       22.26341811        1.75297411
  392      1       1.61895825       17.63821135       23.52569621
  393      1       3.79270332       27.26898660        7.16002197
  394      1      26.42751941       21.50482929       15.37451287
  395      1       7.31513363        0.45544740       14.30345313
  396      1       4.59170732       27.15615577        3.06545832
  397      1       5.50319203        3.53095296       13.14319045
  398      1       5.61593684       15.27936212        7.30354311
  399      1       6.25897672        0.13844463       21.02444597
  400      1      27.08339084       17.79248947       16.56611812
  401      1       8.94534822       18.50824482       10.94233467
  402      1       7.83822835        1.29745688       10.26676485
  403      1       1.79567013        4.35433927       13.40851895
  404      1       5.72687556        3.42374098        4.12058294
  405      1       7.42311724        8.28347076       13.02460445
  406      1       1.05384898        7.51644051        8.56134321
  407      1       2.69652557        9.67139462       16.10268804
  408      1      25.22876748        1.99999669       10.44289064
  409      1      19.25671980       26.70615697       10.43218286
  410      1      18.47980833        2.71154820       10.55714836
  411      1       7.56495945        5.40572143       17.94472729
  412      1      18.31970709       17.23701091       25.80764440
  413      1      11.83907068       10.90207917       18.33239255
  414      1       6.24652837       25.05874009        0.28060082
  415      1      14.50113221       21.28682534       23.85090209
  416      1       3.01005574       15.60944214       12.30169528
  417      1      12.24868088       14.25492967       27.11741288
  418      1      21.84748344        0.99373512        9.89214367
  419      1      22.82067161       27.43076513       13.10242987
  420      1      10.62360280       26.44807876       12.69724035
  421      1       6.50454691       10.39967708       21.85464067
  422      1       0.52206929       12.37871681        4.03511166
  423      1       8.00106725        9.81390687        3.92434221
  424      1      20.27701060       23.39892814        9.15084321
  425      1      20.65333862        8.44915723       10.60116933
  426      1      22.43000871       24.12643841        0.96546054
  427      1      17.26527511       20.76964939       26.00675145
  428      1      12.72768478       18.52949922       11.22016770
  429      1       3.30671468       25.10590688       14.78787187
  430      1       6.02894403       12.86264766        4.05075690
  431      1       7.56322068       12.96653534       26.90206727
  432      1      24.47101166       22.79346136       14.82620859
  433      1      22.66514378       22.92984280       11.25138152
  434      1       3.48152635        3.79881247       24.52586838
  435      1       0.59781861       22.79916780       16.43975757
  436      1      21.17833531       25.81812041        6.71859443
  437      1       8.34737603       24.99068253        9.43882993
  438      1      15.99477490       23.77956243        8.82450700
  439      1      12.98978912       25.37217162        1.14454103
  440      1      20.78119266       13.11885615       16.61154028
  441      1       3.85278170        7.96626713       17.14297444
  442      1      17.30557399       25.14619332        7.46048382
  443      1      17.29011515       15.78937341        8.70133857
  444      1      10.26061193        5.10344415        0.89828792
  445      1      15.22419100       14.93512657       11.83784626
  446      1      11.02357074        9.09597757       12.57242270
  447      1       4.38724944       22.26511036        3.82923079
  448      1       4.95904048        7.09384708        6.03797193
  449      1      24.89599941       19.02382053       24.80960229
  450      1       6.49802242       27.38269591        4.40574261
  451      1       9.37865831       27.40899771       17.78137569
  452      1      27.66275755       26.68859667        4.03154586
  453      1      19.61653733        9.32257167        0.02280407
  454      1       1.98807880       22.83369739        0.56282824
  455      1       5.89955981       10.84869843       19.57717069
  456      1       0.62133660       21.57583890        2.02471745
  457      1      17.32347972       11.98014038       17.29450570
  458      1      11.13851995       24.31891830       13.73619725
  459      1       4.74893501       14.96463585        0.72971282
  460      1      22.26429947        3.98133607       12.28940502
  461      1      20.13769191        5.55584453       15.39267538
  462      1      19.78519349       12.89452245        1.83068251
  463      1       4.26733161       11.48483676       15.70382673
  464      1       5.23103905       27.57884273       24.50200622
  465      1      13.07631907       15.12745110       12.93729284
  466      1      23.15111943       22.77737179       25.13849358
  467      1      17.08522205        9.28685010       11.94691928
  468      1      24.64719492       20.17855471        4.65984457
  469      1      21.83677318        2.63641907       22.68708945
  470      1       7.73746094       16.38251911        7.61298039
  471      1       5.39591051        7.11979237        3.71891666
  472      1      25.55171424       11.75796750       25.01539592
  473      1      22.95617599        1.65979298        4.78512101
  474      1      22.59999394       12.01638975       15.33474833
  475      1      27.58698976       21.93473849       22.99915525
  476      1      11.45650813       21.24998462       25.90089318
  477      1      15.70266546        2.27505717       20.26434336
  478      1       7.68648849       11.44160365       18.16110668
  479      1      22.71292486       12.36797742       27.15200555
  480      1      11.84353249        1.28867176        4.57053632
  481      1      12.22388579        4.59229495        8.40699729
  482      1      22.37183390       19.74402832        5.13321685
  483      1      14.53124723       23.01921672       15.52797820
  484      1       6.73848891       14.39088603       23.61407286
  485      1      17.89683616       19.17287293        1.62829838
  486      1      18.68840686       14.99843134        1.69372215
  487      1      24.73312633       24.97423883        5.94488247
  488      1      19.46108819       22.25580995        2.84769163
  489      1      16.15348210        4.83383314       11.67519642
  490      1       9.27862344       17.15828558       16.84212078
  491      1      12.18758987       15.80168263       15.12873676
  492      1      11.90833512       20.36366442       16.46887469
  493      1      27.20659381       15.74337298       12.97304936
  494      1       3.13438799       23.00378902       15.75506717
  495      1      19.14128410       26.12213804        2.11577394
  496      1      17.88072764       22.72874292       18.67211340
  497      1       0.06120863       16.90364600        8.43072742
  498      1      23.51916136       25.11713079       24.92855856
  499      1      20.17770889       27.11229890       24.64915585
  500      1      24.73541791       15.41610024       15.82497136
  501      1      18.86579611       13.36038173        6.29248999
  502      1       6.41432287       21.94317279        2.42923773
  503      1      18.16769755       14.06613407       23.43114120
  504      1       1.59220919       19.39942234       13.64452860
  505      1      22.34573247        0.32341732       15.35974260
  506      1      17.89267639        5.39172797       14.73023019
  507      1      16.04733916       10.08084644       17.97145433
  508      1      21.96520887        6.76428738        9.57959791
  509      1      12.98623502        9.38018770        2.69636012
  510      1      13.76560784       27.58599309       13.58642199
  511      1       3.05619408       15.43811883        4.10843036
  512      1       2.50369468       16.46517579       16.25142826
  513      1       8.77312718        8.09628628       23.85935517
  514      1       7.95240946       16.80835999       26.25621562
  515      1      17.86365626       26.59790396       22.14142789
  516      1      12.74290864        4.75925947        6.14290616
  517      1      13.20481686       23.72741368        4.68999617
  518      1       7.10463618       20.17684228       23.01253428
  519      1       1.22687185       10.10882621       12.51167215
  520      1       9.97864252        5.54278638       18.09238417
  521      1      18.63124630       25.42831622       25.40748045
  522      1      23.18662642        1.90832379        8.39206994
  523      1       3.91838136        5.54173863       10.21041049
  524      1       3.12915777       15.91306974       22.73503018
  525      1       3.77981329       12.21435696       13.49798456
  526      1      16.33940309       17.29295393       24.59598183
  527      1       2.56843436       26.51407311        0.10742290
  528      1      12.86691623       25.99574901       20.61043910
  529      1      20.83760594       18.37135620       14.36197748
  530      1       3.94941700       21.76816032       27.20171212
  531      1       4.67222190        3.36293690        6.22129734
  532      1      14.80840905        8.23656676       12.21664433
  533      1       7.29031687        7.78387075       18.21134152
  534      1       6.49034900        3.35174883        7.63155237
  535      1       5.01364351        7.92082842       24.72279817
  536      1      14.24856768        3.47469269       16.83299767
  537      1       3.55412534        3.54965063        0.62562699
  538      1      23.83330885        6.81644872        3.02427430
  539      1      18.95324122       21.17405323       17.09229882
  540      1      20.46691376       23.04837839       14.65343861
  541      1      23.65068928        3.77747077       19.35530474
  542      1       1.22870172       23.84896113       20.16338692
  543      1      12.90441307       23.00273416       23.60497701
  544      1      13.36080308       23.62462024       13.43556717
  545      1       2.62543407       25.71853322       20.07147903
  546      1       3.06508484        1.59666215        6.15339520
  547      1      24.63358375       11.79133119       22.80391584
  548      1       7.96094014       18.93251769       19.92158319
  549      1      10.85470309       19.44845248        9.98789456
  550      1       4.69502020       22.18655422       24.90244822
  551      1       3.41041516       12.57248799        6.69335692
  552      1      23.07488183        1.75688153       11.74130925
  553      1      17.65936772        6.36478078        2.48599087
  554      1      18.45471047        3.10849798       17.73426420
  555      1      17.56812227        1.81995180       25.20303588
  556      1       6.86635225        3.24354752       22.36115923
  557      1      19.00408655        1.64014457       27.30170771
  558      1      17.79062322        7.95703630        0.78215375
  559      1      23.14223166       23.25548267       19.29518781
  560      1      22.86536412       25.33641262        2.82147700
  561      1       0.07690102        7.46342710       20.10698068
  562      1       7.94251351        4.91204187        1.60619474
  563      1       0.62763716       23.75137512       12.66665804
  564      1      20.27915349       16.73510816        2.11102876
  565      1       7.49213926       11.53124764       12.12759372
  566      1      26.89266718       24.26871631        6.72705176
  567      1      26.71326079       13.13431231       19.73214028
  568      1       0.88990133        2.14686744        7.17328725
  569      1      17.39029076        3.25386813        7.20137950
  570      1      27.29155156       24.95255185       16.07960955
  571      1      20.91981203       22.04743909       25.60582187
  572      1      13.70990893       14.90137556        6.13812121
  573      1      17.06537586       20.48375479       13.58424908
  574      1      25.50552885        0.25734991       17.54469546
  575      1       2.63359786       27.07436555       22.16042124
  576      1       8.92224566       18.78497615       25.52604674
  577      1       6.31742801       24.37456932        2.45409355
  578      1      13.11591288        7.49937853       17.73479683
  579      1      14.59627862       19.64804585       21.84245459
  580      1      15.71051725        8.56210605       21.94491423
  581      1      27.15888102       21.58510692        9.69178959
  582      1      21.25378356       18.77811855       23.73472932
  583      1      23.31778331       23.78788954        4.49269459
  584      1       6.66805270       21.08536794       20.80029050
  585      1      24.43055523       15.97192442       10.06816432
  586      1      20.57349374        6.87119448       24.82378771
  587      1      14.65974602        2.01963008        9.79095292
  588      1      25.75325046        6.01571244       10.74081676
  589      1      13.54644284        9.83202141       15.13563371
  590      1      17.20255622        4.75915000       22.96990907
  591      1      21.41428216       20.17135096        7.26045960
  592      1      18.65444368       16.82835517       12.05581339
  593      1       4.78391335       14.33729015       13.00968462
  594      1      11.11246972       14.75538550        3.14336274
  595      1      20.93491853       20.33437627        3.23376324
  596      1      17.86675293       27.64444759        0.74993572
  597      1      25.47976433       26.78459517        4.54971307
  598      1       0.21430504        4.95985620       17.61988472
  599      1       7.41774027        4.38521699       14.15242437
  600      1       9.05653410        4.41515797       25.13657646
  601      1       7.65272492       14.17021789        3.06134544
  602      1      11.46051296       16.13430590        9.00286111
  603      1      12.08163960        1.86348786       23.69504368
  604      1      17.56269052        4.20206599       25.20026074
  605      1      13.75073854        6.25223701        9.23945473
  606      1       3.59200349       12.21014439       26.49895770
  607      1      17.59114263        1.64872668       12.41690157
  608      1      27.22605011       17.10834875       18.87158491
  609      1       0.01615818       26.69684477       25.08013162
  610      1      16.24440481        6.84798688       15.75994823
  611      1      25.89832935       26.45753245       21.75690429
  612      1       4.44952828       12.72063210       19.44974843
  613      1      19.48746492        9.18910709       16.37913031
  614      1      25.40072997       23.30099590       20.14688472
  615      1      11.52132674       26.53942204        4.85081399
  616      1      17.99512294       10.46558985        9.95270056
  617      1       2.09433521       19.44610058       25.13876383
  618      1      13.63575544       26.15634561       10.19777822
  619      1       8.98441113       20.80567055        7.37606153
  620      1       1.99677674       19.89885190        7.17733631
  621      1      10.73438410       19.87465185       22.20064712
  622      1       6.85132059       22.84760739       16.98920334
  623      1      12.03517260        9.47358243        7.21767092
  624      1       5.87120362        0.60843074       26.65637878
  625      1      16.78157450       15.92368311       13.28914216
  626      1      15.30169379       11.34843011        7.10846212
  627      1      22.64560535        3.98298116        7.57400303
  628      1       5.81573888        4.27991514        9.65080365
  629      1      15.98244695       16.66668286       20.20114875
  630      1      10.65174186       22.03641132       23.41704759
  631      1      16.17318954       17.71585999        2.23007488
  632      1      20.60689889       13.61452345       19.03007079
  633      1      24.37679441        6.39373691        0.67346775
  634      1       1.10754591       14.50803786       16.83158443
  635      1       1.28250047        3.04117380       24.01477993
  636      1      18.23735256       22.09171237       15.01130763
  637      1      16.92946447       26.44487511       26.68288707
  638      1       5.69817120       17.58815697       26.02396213
  639      1       9.18459401        8.88328950        0.16176340
  640      1      23.64168493       22.09543262        1.15726611
  641      1      27.41693792        3.94952362       25.56088218
  642      1      10.99510724        1.21327368        8.96366676
  643      1       9.24460057       15.09917836        4.55112890
  644      1       4.62635757       20.12683784       20.16250409
  645      1       0.98065494        2.94948096       11.47138361
  646      1      14.50011815       27.11554019       21.90380257
  647      1      19.32645758       13.78233654       25.51767842
  648      1      21.32703525       15.82289681       27.43783287
  649      1      12.34072661       15.24460236       24.86392366
  650      1      21.55934086       18.22903738       16.73258047
  651      1      20.19665614        6.52056711       19.03304665
  652      1      26.81216931        9.59513025       11.55658347
  653      1       5.20666501       13.99034319        9.28364090
  654      1      25.37403478       12.07117611       18.08447270
  655      1       8.07921463       20.82836216        3.66057534
  656      1       1.79172594       12.54182991        2.10229510
  657      1      12.00038119       13.03562480        5.97946228
  658      1       6.69627735       15.95267715        1.84557997
  659      1      26.23660171       20.36327815       26.29621312
  660      1       7.85480045       22.70298891       19.09743580
  661      1      16.28055350        7.56973837       26.66189639
  662      1      19.40996727       18.55210758        3.31951354
  663      1       1.01866975       16.14394035        0.77894193
  664      1       1.09880040       25.40685199       14.24418826
  665      1      17.16731149        9.79956278        2.38851936
  666      1      14.97247486       14.55668722       17.54571759
  667      1      12.07827283       12.62883071        3.62525144
  668      1      13.03480657       19.86695193       13.03893507
  669      1      21.08860583        9.13140736       22.03810248
  670      1      20.75196495        4.91056917        8.80104980
  671      1      24.12308040        7.64462034       19.17584979
  672      1       8.67394842       11.75005546        6.93303127
  673      1       7.51258349       13.62954034       15.31932475
  674      1      16.42028485       27.27585730        7.50233610
  675      1       1.51731677       12.81337470       10.24804951
  676      1      25.63394014       11.52303454       10.79256096
  677      1       8.24694857        4.81311382        7.11818900
  678      1      20.29477760        4.65064386       17.59866322
  679      1      10.45230779       18.59253521        0.97049455
  680      1       1.95694285       22.76566692       22.09991321
  681      1       3.37717689        2.46200870       19.77835243
  682      1      12.71330247        8.62560415        5.04565004
  683      1      19.91260856        1.96678770       21.61429939
  684      1      15.34638049       23.84294986        3.79446231
  685      1      23.39795994        9.77108580       15.82266256
  686      1       2.21953929        8.89951856        3.11149079
  687      1      22.39949353       10.17393978        2.50973141
  688      1       4.24684696       12.26609245       24.29907368
  689      1      20.67054824       26.21279123       12.46648724
  690      1       5.25224842        8.64789786       18.90665337
  691      1      16.90106158       15.41774495       18.46883040
  692      1      20.92620701       10.25209319        7.16105918
  693      1      15.64821841        5.29821450       26.21947708
  694      1      18.98798168       17.83348023        5.72290325
  695      1       1.91587625       25.49939874       25.70639547
  696      1      21.37957623        6.52163451        2.12520459
  697      1      23.44553678        8.12591290       27.06372332
  698      1      19.07781947        0.67510693        5.14876924
  699      1      20.95641436       11.80435989        3.60860765
  700      1      23.41690349        8.40354272       21.57375083
  701      1      21.22669313       27.62446668        5.12903684
  702      1      24.96964495        8.80809746        8.54672219
  703      1      10.70417039       23.12705744       21.08609219
  704      1      10.52029827        6.76287349       12.11159148
  705      1      22.30248590       21.62642694       15.03266840
  706      1      19.28101768       15.86495530       22.03482739
  707      1       0.33821361        3.17003979        3.51617312
  708      1      10.77435680       26.76936831       21.44117756
  709      1      15.09384498       19.36680973       14.34572618
  710      1      16.41470148       27.61059574       20.62039263
  711      1      23.27906808        4.45311032       25.58070149
  712      1      14.53350430       17.41250939        0.43308400
  713      1       8.73121637        0.53835358       24.21110465
  714      1       5.41858665       17.69942582       14.62484444
  715      1       2.39370732        6.56110583       19.88103901
  716      1      16.27858823       20.07828301        9.82704476
  717      1      10.15966904       18.98088187        6.33423966
  718      1       1.19893544       27.63189778       13.49297487
  719      1      11.37390236       10.72954566       25.46568277
  720      1      25.41606763       19.37388315       16.05020600
  721      1       1.98777587       20.03468874       18.05659371
  722      1      19.16518720        2.60049553        3.79108005
  723      1       3.53429300       10.08946290       27.30417764
  724      1      24.10987014        4.82148428        4.17680826
  725      1      12.34085595       11.85399151       27.40181725
  726      1      10.07913571       13.38957116       20.25255106
  727      1      23.29595750        8.85889379        4.21817777
  728      1      13.71697658        1.91924324        6.00879291
  729      1      23.37126474        7.30590793        7.78510695
  730      1       0.14251339       16.08902698       24.39042518
  731      1      26.84335378        2.71333620        5.57171383
  732      1       0.44183088       21.20585388       25.15385817
  733      1      26.23224588        4.43951547       19.33064355
  734      1       7.23613045       17.95643635       17.87151553
  735      1       1.46847711       11.55926722        5.93115164
  736      1      19.21899107        2.11754475       14.24066391
  737      1       7.71761236        1.88809587       20.49118977
  738      1      20.94344044       14.36151625        6.42805406
  739      1      12.92144324       11.54658117        7.52232733
  740      1      13.75934067       18.69195818        7.80128547
  741      1      23.15648045       14.53606815        2.82616372
  742      1      19.15766200       11.50824824       15.92248366
  743      1       8.22122458       13.62023852       18.83011622
  744      1      22.83633330        6.75992183       25.20461693
  745      1       7.07550071       21.79810999       24.70466530
  746      1       3.31980675       21.34352036       10.66930555
  747      1       1.02469834        0.61907379       23.57574616
  748      1       6.25550450        9.08792860        2.58037261
  749      1       5.65254340       17.27624971       10.83968919
  750      1       9.98686476       26.22538596        6.59644290
  751      1      18.45894672       19.41783937        9.39326651
  752      1       9.23327724        1.75656329        0.14300973
  753      1      22.55806080        2.58554175       15.85139544
  754      1       3.80010650       20.27816222       23.87972686
  755      1      15.75640432        3.34499692        5.44784829
  756      1       7.12823839       18.80864159        4.43679267
  757      1      23.14815478       17.07855316       27.10462360
  758      1       3.75111969       20.24839950       12.74423403
  759      1      25.41837349        9.73544889       26.44693329
  760      1       8.82573306        8.93962886        9.42534684
  761      1       0.09512044       17.97418766       12.25820662
  762      1       3.10985719       17.18301622       14.04014355
  763      1      10.99904703       19.70707603       14.41142587
  764      1       7.41643224        1.74021833        3.67616758
  765      1       2.66950190       14.75291175        1.92332992
  766      1       3.76023681       17.62741302        4.10381193
  767      1      19.16872862       18.69215753       19.55759810
  768      1      14.60563461       18.13408842       25.87131697
  769      1      18.60427706       23.03019375       20.87464919
  770      1      17.12019641       16.52461632        6.50720871
  771      1      20.74016988        8.85734426       18.36938368
  772      1      24.62205234       13.08221455       16.04381918
  773      1       8.69405236       23.40570680       24.19235076
  774      1      14.00788198        1.93295609       18.64468129
  775      1      20.15795601        2.67760968        1.53867993
  776      1      10.48004874        7.17955042        9.78080390
  777      1      20.59781304        5.54980596       21.12000592
  778      1      15.60192760        2.88611299       12.91883340
  779      1      13.28116906       11.82954203       11.17774555
  780      1      19.40092728        9.10609632        8.69000290
  781      1       7.37474628       26.94797658       16.29366725
  782      1       4.78307071        7.70299713       10.00827486
  783      1      24.59912580       26.80532080        2.45969236
  784      1       4.06939499        5.83396963        0.47913162
  785      1       3.90789902        5.15142151       22.64246101
  786      1      13.63538791       23.59755376       17.66577461
  787      1       7.22191901        6.91537891        6.81252721
  788      1       9.84346483       13.70864420        6.38216777
  789      1       4.97905661        2.13050277       23.47586238
  790      1      27.23919962        2.18398014       20.35665178
  791      1      22.08002781       15.39345134       10.01032923
  792      1      21.49686973       13.51430614        8.62667784
  793      1       6.50738168       11.95202138       23.64764173
  794      1      23.92888598       12.23080877        5.98096014
  795      1       6.10354074       26.26724499       19.30952267
  796      1      27.54538140       25.01996277        2.41755760
  797      1      25.01058097       15.15968867       12.23002530
  798      1      25.70698306       13.73049862       21.89541320
  799      1      15.15844132       25.41169591        2.16726031
  800      1       4.56321581       14.13559030        5.37319033
  801      1      10.20983386        6.22722996       24.06971798
  802      1      10.76604116        7.47582861        4.38826878
  803      1      26.63804411        6.47978411       16.36592244
  804      1      20.09274932       20.87709573       23.67703808
  805      1       9.44212786       22.97989630       12.93394680
  806      1      21.20648613       23.64561292        5.72691712
  807      1       1.64318265        9.36560193       26.25516090
  808      1      10.73417195        3.42065220       17.73573196
  809      1      21.09373126        3.66582022       14.33229780
  810      1      21.02793302       20.10175314       26.94258884
  811      1      27.60731021        6.28205137        4.86310423
  812      1       8.52830916       17.03502431       21.52127932
  813      1      15.91104554        5.93935784        8.25093987
  814      1      16.55841030       11.85471479       26.75657624
  815      1       8.37524223       14.68691385       25.24587218
  816      1       7.58718918       24.72199438       22.58497186
  817      1      26.06705157        8.01035893       24.76375177
  818      1      14.58521035       10.98640145        0.04334963
  819      1      11.64990571        3.04335506       12.19366926
  820      1      10.83176734       12.39310209       14.43176093
  821      1       1.67885387       18.22293599       19.56945400
  822      1      13.78169124       21.05027336        7.68999954
  823      1       0.72733135       11.37634968       19.94565505
  824      1       0.69386485        3.65671693        9.08790154
  825      1      10.35917139       14.72801380        0.92604153
  826      1      27.36467311       23.88078431        8.97189193
  827      1       6.18610930        5.24916288       15.99195437
  828      1       0.95145972        0.91493720        2.95644117
  829      1       6.18455413        5.59872296       22.06757549
  830      1       8.83613947        9.65111934       11.76437986
  831      1      26.53549328       10.90343345        3.37769648
  832      1      19.58478565       11.26062934        5.44495662
  833      1       2.17886923        5.42213306        8.52543519
  834      1      15.44133120        0.04373527       15.27608482
  835      1       4.14968611        1.07620971       21.50840967
  836      1      25.74257949       12.27844996        1.65634800
  837      1       8.37847239       24.61006875        5.75007350
  838      1       2.62804658        4.46090484       20.87606877
  839      1       8.00341760       24.62618646       15.94411173
  840      1      22.04377409       26.73330241       19.79569129
  841      1      22.25869409       23.19991207       21.46713019
  842      1      10.32564378       15.38095486       21.60488004
  843      1       5.27884181       18.76141757        0.44126430
  844      1      12.26738583       10.20374723       20.45699509
  845      1      24.97204667       15.69003036       26.58120211
  846      1      13.30547403       24.80360792       24.95710310
  847      1       1.99342668        0.73679322       11.32933422
  848      1      24.32842034       15.57267985       22.72675675
  849      1       5.83031004       23.25832558       12.81903604
  850      1      19.13341168        7.94768695       12.44608743
  851      1      17.51413852       21.46905591        1.80674700
  852      1      15.62790910        2.43302862       15.23099963
  853      1      16.73180627       10.71516586       24.61703051
  854      1      15.34678343       13.22868971        5.57622431
  855      1      11.66488495        2.34807056       19.64399792
  856      1      11.43116752       22.58559834       17.30995259
  857      1       1.96451378        8.43025424       14.09707238
  858      1      23.21013588        0.78205525       22.88347447
  859      1       6.82317810       21.08061328       15.44541837
  860      1       9.07435495        4.34541246        5.05624951
  861      1      10.43160726       24.39246186       16.00276853
  862      1       3.36259120        5.29189628        6.34638458
  863      1      14.29672728        1.49159912       23.23919650
  864      1      20.20225208       10.26940835       20.21543142
  865      1      18.52820134       12.40468311       13.74590225
  866      1      27.23775996       26.32171624       17.95470534
  867      1       6.91889930        8.31888017        0.44028524
  868      1      11.11966169        5.25046868        4.55118977
  869      1      22.79335078        0.29565031       27.17684384
  870      1      23.67084924       17.04679784       17.22114976
  871      1      20.99523374        4.68682820        0.57503518
  872      1       5.26830647        8.63683231       12.08849208
  873      1      24.90671197       10.17264948       21.21803695
  874      1      13.90251459       16.41129331       16.60699034
  875      1       3.36443566       16.96473503       10.21489373
  876      1       4.43449805       15.23245671       16.77663700
  877      1      21.81730008       13.85186714        0.95413182
  878      1       2.90377372        0.88488526       14.87897182
  879      1       3.26188520        6.72580577        2.71298637
  880      1      26.16911890       27.60682035        9.28236293
  881      1       6.69116464       11.33488712       15.98031197
  882      1      15.11624468       18.46611797        4.22553944
  883      1      22.99283365        9.33655339       18.08461677
  884      1      13.86479143        5.82680470        1.95570675
  885      1       5.03295728       26.37973541       10.82436909
  886      1       1.63050027        7.19913119       25.49075250
  887      1       0.47620653       27.64016506        7.94438299
  888      1       1.94085734       24.54601399        9.21358895
  889      1      18.80986123       17.18746553        9.75006037
  890      1      22.46026601       16.71227780        3.00826876
  891      1       1.58608808       15.52769331       26.29490255
  892      1      12.28274056       16.63742838       20.99928679
  893      1      13.59837551       21.87967666       11.82699799
  894      1      25.98007467       25.75446011        0.60082592
  895      1      12.18389536       27.18686591       27.45943859
  896      1       2.83909310       13.76593346        8.63083171
  897      1      19.41340314       26.20955436       14.58438317
  898      1       2.95298438        8.87250081        9.03218033
  899      1      22.78709401        4.41156126       21.45774026
  900      1      25.11396775       26.51243965       13.46708147
  901      1      17.51403906        7.23742782       22.91350183
  902      1      20.82341063       23.86406915       12.48139638
  903      1      17.05878720       25.93213303       14.51492000
  904      1      26.72616882        6.01445168        0.81915629
  905      1      17.74859273       14.37926586       14.74199891
  906      1      14.29830241        8.78619221       27.02223320
  907      1      17.09930891       26.90687042       18.38908044
  908      1      23.96915803       27.60341513       20.84126586
  909      1       0.61977474        2.80048575       16.85376032
  910      1      11.27986542       26.50003678       16.67797889
  911      1       9.66655872       26.07792596        2.18072762
  912      1      26.71055489        7.94254143        9.85927319
  913      1       5.98023706        2.51071020       10.98590055
  914      1      20.37236175        7.81475179       14.64814334
  915      1      22.09448870       26.45718192       23.58342967
  916      1       6.90267718       11.30124290        5.50739318
  917      1      24.64614929       22.16184473        3.30853441
  918      1      22.24333451       20.21949268        1.29231359
  919      1      26.62101067       10.14055945       17.29408556
  920      1       5.40275579        7.37928333       15.51988877
  921      1      11.32610142       12.11552583       23.53380025
  922      1       8.87900640       20.90844029       13.99846775
  923      1      13.60468775        5.25358788       22.62193027
  924      1      17.51814730        8.53425918       24.91755990
  925      1      17.31576455       24.52171618        5.16913895
  926      1      26.10396815       14.99318137        8.61939659
  927      1       5.67695486       18.80674208       12.59598025
  928      1      11.62486782       27.65112498       14.50269039
  929      1      16.45688724       12.03166862        9.05400342
  930      1      13.68743700        1.24286861       26.78081739
  931      1      17.74092280       19.27089263       17.68652305
  932      1      19.54159993        1.10003336        9.32869424
  933      1       3.40815951       13.07666507       17.28406836
  934      1      20.01679342        4.41732336        4.98117419
  935      1       2.35706801       26.92420819        9.22260324
  936      1      20.99552215       15.74298035       20.15540895
  937      1      15.50497562        7.23920154        3.10575639
  938      1      14.95668422       10.65780922        2.31343142
  939      1      22.38963850       11.96647254       12.89433997
  940      1      14.68444849       11.81376358       14.41343785
  941      1       8.13651696       22.18078232        5.61544508
  942      1      15.75947239       17.21007316       15.15433505
  943      1       5.70829247       21.95190881        5.79136046
  944      1      12.63084334        7.80876205       19.97963502
  945      1      12.28115862        2.13605853        2.40672360
  946      1      25.99917808        4.12260136        9.37790678
  947      1      15.47108857        0.49881807       25.34862100
  948      1      12.51777059        8.25249812        9.21716891
  949      1      15.53907995       22.31132663       18.76741265
  950      1      21.36387601        3.21842415       24.94405618
  951      1      25.31104417       20.71281420        8.53271342
  952      1      10.35242739       21.67511558        9.24769720
  953      1       8.67539942        9.48993563       21.85983219
  954      1      18.01799083        7.45990057        7.44728207
  955      1       9.94465182        2.73662126       10.39136140
  956      1      23.46808542        8.07586598       12.63789766
  957      1      21.02552289       15.24189071       25.16592912
  958      1      13.48048494       21.70487400       27.04458824
  959      1      13.64161815       24.44788774        8.61838789
  960      1      15.16855342       15.96619216        9.73940502
  961      1       9.64310755       13.41791393        9.97759773
  962      1      21.04291252       17.13129555        8.89518916
  963      1      26.45924414        2.44153381       12.35821775
  964      1       6.11467386       27.13219585        6.83709586
  965      1       8.57732466       14.69777968       11.75714900
  966      1       8.03186863       20.85888923       26.60473217
  967      1       7.36716007        8.95054244       15.44665649
  968      1      18.36410831       11.29239407        0.72312072
  969      1       4.46284358        7.55490604       20.77701724
  970      1      11.74501511       13.21897480       18.53306489
  971      1      26.35766624       21.25034583       19.55501006
  972      1       0.33749611        8.08816335        6.37451733
  973      1      18.32426314       11.71515809       23.07723920
  974      1       4.58484396       22.98438734       17.67716162
  975      1      11.22146669       10.05702420       14.68856168
  976      1      25.10781999        1.51721426       24.06354452
  977      1      19.20686128       22.77965598       11.13712504
  978      1      26.12573459       12.18283173       14.34009263
  979      1      17.13377361       27.25176821       11.22702145
  980      1       1.04884465        0.68494775        0.58227677
  981      1      14.16362661       11.61855559       20.71334508
  982      1      23.33373282       25.91158444        7.60230276
  983      1      15.17564740        3.46611762       22.28856234
  984      1      24.16627352       13.54166906       25.79710309
  985      1      12.84514365       17.41415942       18.67437778
  986      1      25.88720688        4.84474682        5.67107234
  987      1      14.85067292        5.79235003       17.38019410
  988      1      11.56455575       19.83623790        4.64174696
  989      1       3.61944429        3.30134071        2.98233704
  990      1       8.61786707       17.30026652        5.56433456
  991      1      25.77261971       13.60748807        6.46392144
  992      1       3.96800564       23.67744654       23.18419713
  993      1      17.66896213       16.96247430       16.75351434
  994      1      13.30769461       25.51474230        6.29739599
  995      1      22.32300895       13.35936755        4.70021749
  996      1      24.36143286       18.58801116       13.89722363
  997      1      19.24446959       25.27129214       20.88706415
  998      1      12.25225020        5.32399653       12.57399862
  999      1      14.34446389        2.16141510        1.10868325
 1000      1      18.05748927        9.64669034        4.67614375
