run_id:  1015
total_energy:   -3029.2365987442968
  1000 atoms
  1 atom types
  0.0   27.664  xlo xhi
  0.0   27.664  ylo yhi
  0.0   27.664  zlo zhi

 Atoms

    0      1       0.03031077       18.74783947        6.76161413
    1      1      14.88859561       18.75589939       19.51263108
    2      1      19.89546930       15.25585723       15.88399307
    3      1      17.40667657        8.37056045       17.17449009
    4      1      12.88892055       12.83537798       13.35209048
    5      1       8.82970014       16.65941823        0.72876077
    6      1      13.87360351       23.98637608       26.96141464
    7      1      24.74806074       22.88965146       12.49708312
    8      1       0.64768404       26.00720931        6.11859107
    9      1      26.75759383       27.52661806       27.07694084
   10      1      26.25263396       24.01761091       26.51162093
   11      1      24.73459531       12.82912171       12.65240026
   12      1      12.02583603       16.25316776       11.53481747
   13      1       8.77425397        2.82872756       23.39097637
   14      1      22.30052793       12.20490800       22.84860272
   15      1      16.02837888       21.62436430        7.99049901
   16      1      22.73082945       17.42906031        5.21288388
   17      1       5.63975493        9.39084987       26.31430880
   18      1      25.01031504       10.29134768        5.08162041
   19      1       8.63380183       12.92893323        1.26036038
   20      1      25.64028928       18.08608779        1.76543307
   21      1       2.97503500       23.63852794        7.21438338
   22      1       4.98622454        2.30970900       17.97289567
   23      1      10.42311933       14.37389959       23.85348548
   24      1       0.39802473       14.89922190       19.06606551
   25      1      27.42744638        9.48113385       21.20021139
   26      1      12.89556720       18.21731529        3.60916466
   27      1      22.34839240       19.11021651        9.28020536
   28      1      17.72295932        3.26797282       15.57142906
   29      1      27.30134880       22.37387188        5.60003507
   30      1       4.80670500       21.73889203       14.26595503
   31      1      16.53328839       18.61066177       22.88154478
   32      1      16.95068141        2.93468560        3.35650850
   33      1       9.80816659       16.64053753       12.28929409
   34      1       8.22710101        6.08329632       12.55835232
   35      1      15.73847622       27.19975229        3.57601288
   36      1      10.64766948        6.60657621       20.12701493
   37      1       7.06667071       26.91870646       23.01887163
   38      1      21.88611253        2.75358493       18.08745598
   39      1      10.72362806        0.53315030        1.29110853
   40      1      10.80484531        7.14294152        0.00760052
   41      1      10.62547187       25.34597157        8.65467169
   42      1       4.49398139        0.65051729       11.51565778
   43      1       8.95006381       18.78846301       23.14261855
   44      1       1.36042149       13.16134186       26.41052045
   45      1      23.73590046       10.99947419       19.50444971
   46      1      14.37201265        7.68222753       14.49388797
   47      1       6.62023214        4.99824440       25.70688214
   48      1      14.98019130       20.37360524       25.88957192
   49      1       9.76515099        4.84041372        8.98775299
   50      1       1.39282487       18.50614021        1.05934503
   51      1       7.36934688        2.40071482        1.30364469
   52      1      24.47555475       19.90067900       22.64273412
   53      1       0.18017230       21.46004070       13.43291777
   54      1       6.88141445       21.90002059       11.07711229
   55      1       4.66361114       24.45820671       19.59174507
   56      1       1.88850655       18.82313217        3.34460754
   57      1       5.74850454       11.75435327        9.31219859
   58      1      27.18353555       11.73260888        7.36407907
   59      1      23.35127162        4.40981559        0.21307642
   60      1       2.39177369        3.04445701       15.25922435
   61      1      18.79648160        0.71861573       23.30722379
   62      1       8.11270386       11.70598551        9.29475624
   63      1       5.42143785       27.56161443       17.40250245
   64      1      20.43073614       21.73132278       21.51109587
   65      1       7.07701384        5.12442604        3.63155538
   66      1      16.00105719       13.26711645       15.99169819
   67      1      24.45207330        7.21757976       23.55556914
   68      1       0.19413208       12.28353962       24.60421972
   69      1       7.16548068        2.99188199       18.44956749
   70      1      10.43100639       17.36936491       14.61507170
   71      1      13.76967404        9.73020937       17.37986807
   72      1      13.30293221       21.11840003        1.52468872
   73      1      24.87325731        3.52900051       14.76582947
   74      1      26.35468383        1.83650954       15.78363578
   75      1       2.67787927       10.67917035       10.64401606
   76      1       2.59429954       23.55319578       11.19361111
   77      1       7.73882075       19.95563718       12.15567876
   78      1       3.85867497       16.84027691        7.79126461
   79      1      23.72340003       26.58494899       16.60332421
   80      1       6.98978006        7.52994267        9.05504812
   81      1      18.81873198        4.00371847       21.37394210
   82      1      11.03382970       18.98459577       26.24574695
   83      1      14.74566759       27.42979946        5.78809970
   84      1       0.73072041       21.95481514       18.57798030
   85      1       5.66281087       17.98429926        2.75213078
   86      1      26.84079986       25.12804009       19.92121686
   87      1       9.59115856       14.98038394        8.01728364
   88      1      25.29310217        3.78216008       24.48146647
   89      1      24.22187005        5.80237028       15.85949488
   90      1      11.76456507        4.50282674        2.43968191
   91      1       0.56158073       12.56745909       15.63673402
   92      1      20.01161969        0.48852530       15.60543996
   93      1      16.13835313       10.25857634       20.37405965
   94      1      22.80519233       14.20669320       24.06335890
   95      1      17.72374806       20.70997616       23.65875625
   96      1      10.18508717       19.78714050       19.78984439
   97      1      12.97668660        9.47860625       11.26697862
   98      1      25.52447587       10.07356704       15.27248828
   99      1      27.53867397        6.22458091       26.30106791
  100      1      22.76335517       11.60875144        8.03308736
  101      1      15.04129275       26.03616557       23.97436248
  102      1       9.04875714       14.70064396       16.87928629
  103      1      18.93265043       22.90563677        4.99452331
  104      1      17.89237938       26.51296551        4.07566263
  105      1       2.91481103       25.45149365        5.79557422
  106      1       9.73853690       10.04742865       18.16159256
  107      1      11.20857305        5.35759102       22.13368165
  108      1      23.78414306        1.42438655        2.59754397
  109      1      16.05412775       24.51297474       27.63306194
  110      1      14.06014838       13.73569168       19.58322954
  111      1       1.78984769       15.69829166        7.48489659
  112      1      11.11051221        6.93844176       16.53821412
  113      1      12.85320150        7.74835155        1.00675545
  114      1      23.73937048       24.40562525        9.49490908
  115      1      17.09844032       14.58731695        5.25928131
  116      1      19.85560703        4.86364595       25.94469384
  117      1       8.66047571        2.38418273       14.72569053
  118      1      18.94402642       19.06013635       12.96237742
  119      1       8.89240558        2.13233110       17.06113315
  120      1      12.55666409        5.90546946       14.82654774
  121      1      18.15443448       15.10937795       27.17146404
  122      1      26.95143434       14.25101729        4.59547422
  123      1       5.86253566       19.22763783       16.48858546
  124      1      14.48433050        6.80151794       21.05673074
  125      1       2.65028195       12.34265070       20.88294924
  126      1      19.64268229        6.30135650        3.74911157
  127      1      11.18532209       13.94485010       16.34637186
  128      1      20.91561319       16.67409865        6.54928912
  129      1      14.96341394       22.23446233       20.89413555
  130      1       5.04990604       11.00383169        7.09916909
  131      1      14.89264891       17.26049929        6.21472485
  132      1      25.04991736       25.14573248       15.28583673
  133      1      16.86922542       22.70203208       22.45854463
  134      1       5.22172357       23.19214026        7.67580413
  135      1       6.07023371       20.99328744        0.33625055
  136      1       9.49887542        2.01657924        4.97680543
  137      1       3.02113821       19.45390185       27.31740366
  138      1       6.30361899       15.01846269       11.21143389
  139      1      12.92171512       15.87220197        3.75450224
  140      1       9.60965805       24.48792415       26.10059826
  141      1      26.83625410        0.63336931       13.78626828
  142      1       9.16157959        9.68760565       25.61619145
  143      1       3.88257970        9.00667386        6.88488116
  144      1      16.96554318       23.52760069       11.01611954
  145      1      21.62440769        8.58939893        1.03550726
  146      1       1.83128711       21.86962982        5.96739216
  147      1      11.42612012       26.90995766       10.25977541
  148      1      13.74628012        1.86284854       11.98800862
  149      1       7.34967504        1.17125361        7.92238670
  150      1       0.39657400       12.14526926        0.60155379
  151      1       0.09419389        9.14240282        2.40461102
  152      1      15.44823860       20.64174353        4.73170048
  153      1       7.79882764       25.62295827        3.65465001
  154      1      14.07259168       14.30802845       23.52979345
  155      1      24.74806082       17.61680574       19.27221278
  156      1       2.08200578       24.88879038        1.70814405
  157      1       8.71994597        8.29408667        5.46596401
  158      1       1.28994340       14.17108855       12.24710606
  159      1       2.12388266        6.89649801       26.37856506
  160      1       4.28489688       20.57975168       17.91868118
  161      1       5.56785896       16.36518206       18.47334818
  162      1       5.05613951        1.12922207       13.79531555
  163      1      27.45958069        7.07875715       14.34111642
  164      1      12.83117058       15.11475190        9.58276392
  165      1      19.42927772       23.55996419       26.68060500
  166      1       5.87140045       15.26617610       14.90050370
  167      1      11.16109203       18.62010470       17.96154234
  168      1      14.68855072       18.31771130        9.84618388
  169      1      26.60862301        7.23508300        3.02289008
  170      1      11.51280132       24.51971926        2.74785230
  171      1      20.63951316       15.35135158       12.05567560
  172      1       7.38808748       17.93355243        9.26964775
  173      1       1.74988061       14.47173389       21.28720755
  174      1      16.30967331        9.23487545        6.34044753
  175      1       2.24865523       21.12208471        3.70630426
  176      1      18.09465219       13.57135201        8.56616598
  177      1      25.72103883       23.29543806       22.58258006
  178      1      11.54417394       18.20791596        7.91841077
  179      1      25.55943346       18.06285033        4.04753735
  180      1       8.27834731       25.22513571       18.99653304
  181      1      22.62840961       20.99867643       18.72850917
  182      1      15.39505499       21.76489244        2.73001127
  183      1      21.13232068       26.86596756        2.92262475
  184      1      24.97847358        1.47323563       19.39222605
  185      1      21.91697158        8.33006529        6.16924085
  186      1       0.83796135       23.33434976       26.24182381
  187      1      12.60982888       18.43733555       22.57211808
  188      1      17.45084485       22.57246716       27.36860122
  189      1      14.91064835        5.56732697        6.08631674
  190      1      14.20073901       25.62653832       12.36934890
  191      1      10.81273164        3.09458260       22.00528343
  192      1      25.74544460       25.24424553       24.06148762
  193      1      21.81154243        0.97366095        1.60449160
  194      1      10.26303734        3.54725063       26.73497709
  195      1      18.07465342       24.80786411       17.47684676
  196      1      21.35729785       20.67623553       16.88056830
  197      1      16.46234736       25.45196782       12.31662026
  198      1       3.39540096       26.88105012       16.44519391
  199      1       1.22276945       18.07334457       10.20860395
  200      1       3.98767399       15.94119671       26.19157267
  201      1      16.03139144        5.80900841       19.41291387
  202      1      21.97370859       20.55803905       11.19553769
  203      1       3.75547455       24.85064865        3.48169099
  204      1      18.29436673        5.71353817       12.34113679
  205      1       9.13876360       10.58296794        1.87632800
  206      1      26.81056348        5.50958720       21.30674800
  207      1      26.27702318        7.92011831       18.31917086
  208      1      26.88399518        4.87760006       13.20674638
  209      1      12.93719476        8.97696702       25.13569090
  210      1       4.71369344        9.28615507       22.35792595
  211      1      24.78774153       22.18412560       26.72805867
  212      1       0.17764803       17.85623535        4.68687509
  213      1      23.12331348       16.65070111       20.93315049
  214      1      13.18828832       25.96523540       18.11772588
  215      1      14.41863836       15.30079185       21.42733004
  216      1      26.26100066       15.95738098        0.97598292
  217      1       4.87280834        3.18624426       26.41734572
  218      1       3.80749914       18.62909416        6.34756380
  219      1      20.49478419       10.68204596       23.81727349
  220      1       9.90952943       22.36627276       27.22643001
  221      1      11.38799311       26.01062523       25.46108120
  222      1       1.75073364       12.30230331       13.60942740
  223      1       9.81638958        8.89418083       16.13412127
  224      1      17.30391175        3.81339168       19.58389569
  225      1      16.56889105       11.41429425       12.94844447
  226      1      25.54396437       14.38863909        2.59982293
  227      1       6.14772880        5.96997879        0.12896740
  228      1      13.66264153       12.03245294       23.02626496
  229      1      26.71865515       20.18191979       21.60735428
  230      1       7.62084748        5.61017541       10.27727102
  231      1      22.44295252       19.85697224       13.47785820
  232      1       4.38404410       12.15982840        2.33448999
  233      1       1.14280495       19.02296575       21.62761071
  234      1      21.38880954       16.12164852       14.09153778
  235      1       1.79101770       27.04182146       18.23090551
  236      1      17.05832689       24.90288950       23.59070669
  237      1      20.06310389       24.00691199        1.25954645
  238      1      14.21193694        6.11461529       11.44631746
  239      1      22.26146907       25.21459655       17.91825903
  240      1      14.67161423        9.94117214       23.70829266
  241      1      19.53474537        7.83797664        5.42460394
  242      1       5.42987474       18.68899629       23.72768181
  243      1      24.85691092        2.73601627        0.89636116
  244      1      12.06323979       12.85871848        9.60428870
  245      1       6.87988718       24.96402040        7.52993480
  246      1      19.00443807        5.07464334        7.13779600
  247      1      12.16299079        3.67655730       15.83650251
  248      1      22.53942210        9.82290418       11.62868489
  249      1       1.41038577       18.83195244       16.11143196
  250      1      16.09103131       14.10688461       26.72682252
  251      1       3.00228364        1.14554200        3.76369448
  252      1       5.16989144       13.10510744        0.26239540
  253      1       5.75015160       23.45822958       21.51490664
  254      1      11.83453889        6.83959683       25.49141563
  255      1       0.99073261       15.75027684        5.22531269
  256      1      24.26082819        0.28703885        7.87755420
  257      1      24.64193085        5.16868214        7.77730932
  258      1      15.46780057       27.59035276        9.56154974
  259      1      23.38548312       18.14367781        1.41291868
  260      1      21.08849215       19.91062592       20.21995122
  261      1      25.52724618       16.69360190       24.52334788
  262      1      24.91107083        1.25374682       26.63843662
  263      1      19.82829817       16.83543316       24.05105229
  264      1      12.80856801       18.75711126        1.43385192
  265      1      17.49281712       21.22124038        6.09782310
  266      1       7.55450073       26.64123526       10.76920636
  267      1       9.36570672       24.98547641       21.04508124
  268      1       6.94869057       19.93820104        8.22038315
  269      1       5.43015132       21.50327289        9.34343686
  270      1      16.36768060        3.67454735        9.43368744
  271      1       4.91693523       10.92862031       11.66201542
  272      1      21.80292502       12.00311618       20.43505105
  273      1      15.98662806       21.52276074       11.65333076
  274      1       0.01923329        9.82886924        0.12831275
  275      1      22.25913563        3.78588270        5.49239148
  276      1      17.81793039        7.27948182       19.17980725
  277      1       4.90922040       17.14637922       21.96918542
  278      1       8.92120688       22.90716039       10.55650724
  279      1      20.27861435       24.84571842       16.34796919
  280      1       9.61140404        9.65102905        7.15378856
  281      1      26.77262097        0.83008733       22.32095178
  282      1       2.00067029        4.97321536        4.27131427
  283      1      20.92001093        1.12444210       26.02249833
  284      1       2.61518707        5.85207617       17.65137422
  285      1      22.80246699        7.69928436       14.83738326
  286      1      15.51124891       12.60770543       11.20474540
  287      1       4.39281502       14.69218202       24.25218769
  288      1       1.45443440       10.29959008       24.31257159
  289      1      21.43971578       25.35873834       21.60080135
  290      1      10.42086187       11.25162654       21.56447515
  291      1       4.09395524        4.09794032       16.61872632
  292      1       2.88673724       20.62811377       21.72287688
  293      1      23.45250814       25.69713727       27.17929159
  294      1      20.69731152        1.02631622       19.44179542
  295      1       0.10566631       14.07824847       23.01076679
  296      1      16.73925668       16.43270393       21.68186874
  297      1      14.26816906       15.01913503        0.30138559
  298      1       0.55996145        8.44151432       23.32716399
  299      1       4.78393411       27.07827694        0.58280265
  300      1      19.38820264       25.40399714        8.33356266
  301      1      14.63060079       14.67070082        2.54183588
  302      1       7.24200421       11.04968235       25.64720221
  303      1      17.23408033        4.37839618        1.58363621
  304      1      19.96971332        7.15652604       22.63749105
  305      1      16.82559661       23.97186546       15.56310632
  306      1       4.08206829        9.91215926        2.03767717
  307      1       1.54478027       20.30381061        9.48508891
  308      1       9.46749103        0.83819724        7.06566158
  309      1      24.91762074        1.07992469        5.80593265
  310      1      20.14848524       16.87589103       18.12511717
  311      1       0.96289577        2.98971783       27.62086362
  312      1       3.12198867       10.98357008       22.78453148
  313      1      23.77212416       22.15569824       22.97370051
  314      1       1.38009756        1.64672365       18.75954196
  315      1      14.88838464       27.52537833       17.55774831
  316      1      13.23903717       21.46214225        5.41658991
  317      1      25.64159291       18.97412083       11.95222486
  318      1      24.63150764       18.45706016        9.79120975
  319      1       4.25882446       24.74596798       12.38056874
  320      1       7.76308152       24.32630083       13.63562010
  321      1      12.52283235       17.63734311       24.87502048
  322      1       2.03861465        9.34231556        5.53370560
  323      1      20.31084786       13.01675856       12.27798042
  324      1       9.91224396        0.73165782       19.93856687
  325      1      23.94438771       22.63697180        8.00416041
  326      1       8.34233431       26.45670579       12.86043946
  327      1      23.45336550        5.99717589       11.52407533
  328      1      14.80504860        7.74859365        5.26219252
  329      1      21.66224718       22.35737624        7.58542456
  330      1      23.76543541       16.29289706       13.93457690
  331      1       3.78876614        5.18482167       12.56203948
  332      1      22.51432230       18.74754698       21.76880079
  333      1       0.68303333        3.78147029       21.90269061
  334      1      10.99789161        2.25516739       14.26372975
  335      1      26.23217270       21.19710983       11.81615207
  336      1      19.64234984       20.50036610       11.17499928
  337      1      24.85565217        5.17573915       22.61471423
  338      1      19.89186428        4.36757169       11.01872472
  339      1      19.06777511       19.71459539        7.09016478
  340      1       8.80709250       13.06968136       13.41194416
  341      1      11.43048372       11.05007238        1.95163934
  342      1      18.72125409       19.15338525       27.06692553
  343      1      26.91305628       15.85223835       15.42145794
  344      1       3.54211446       25.84856721       23.96468568
  345      1      10.12380016       21.99619071       19.14412638
  346      1      24.09081890       10.91718303        0.86261154
  347      1      13.47671839        5.12551402       25.08961957
  348      1      25.89195353        8.62224951       13.48028729
  349      1      26.24491473        9.58243664        6.93383285
  350      1      18.21474989        1.13383668        7.24999992
  351      1      26.83780887       22.91222884        3.31887748
  352      1       8.10157383        0.29694413       26.39414255
  353      1      12.93370155        2.32222913        8.25331305
  354      1      19.75351390        8.95478678       25.49610941
  355      1      16.08261128       14.80350985       24.50344909
  356      1      19.74576595       12.45810871       10.02835367
  357      1      18.23015876       13.30626915       19.19827383
  358      1      22.58500369       18.76310017       25.58944169
  359      1      25.85200026       25.28918058        9.96652072
  360      1      15.10929414        4.39282522        0.68317982
  361      1      12.36987294        3.03772744       25.69403302
  362      1      10.15394530       20.43493374        2.72233959
  363      1      26.14059545       24.74782819       12.12220829
  364      1      16.18095160        1.15752070        2.07658794
  365      1      19.00499237        0.80758968       17.80263929
  366      1       6.62378345        6.74868722       24.02097106
  367      1       6.70052164       15.71259004       21.70084912
  368      1       8.38693519       25.88148280       27.54938518
  369      1      15.59508023       20.26023070       17.88107468
  370      1      10.85065072       27.49742937       23.68202168
  371      1      26.95018879        3.73010161        1.46766553
  372      1      23.17577451        5.74187503       17.99601512
  373      1      14.33099075       12.62604760        3.54254812
  374      1      16.80446703       15.46081228        3.03111319
  375      1       6.26711058       14.50664022       19.72794112
  376      1      26.12960548       20.48374422        6.43026952
  377      1       9.06944714        8.38568724       19.78563816
  378      1       3.95848742        7.34128493       13.59051273
  379      1      27.05180402       12.80286468        9.50542075
  380      1      24.72183788       19.93717320       18.41369164
  381      1      12.72439542       22.31731612        9.43584800
  382      1      13.04618145       23.70324575       21.25968610
  383      1      23.92909685       10.49543796        9.80424642
  384      1      18.14151266       11.38155985       20.80744658
  385      1      14.28668657       20.69821054       16.01067439
  386      1       5.83233242       19.70135343        6.20461718
  387      1      27.05825151       19.75729539        0.81319361
  388      1       4.17641969       17.76060989       19.87292429
  389      1       1.06704966       10.92859853       17.34121140
  390      1      11.11528558       22.30712470        1.70721297
  391      1       1.60347213       17.62077820       23.49946184
  392      1       3.74580834       27.25611282        7.13757798
  393      1      26.45175559       21.52786413       15.36048480
  394      1       7.37002370        0.43650405       14.26314659
  395      1       4.54346200       27.17735298        3.04016696
  396      1       5.50206372        3.50355055       13.09509597
  397      1       5.62608348       15.33072593        7.30864676
  398      1       6.31325218        0.04271692       20.90015320
  399      1      27.07576643       17.85900704       16.58374854
  400      1       9.02474158       18.40467981       10.90390369
  401      1       7.88922796        1.28441065       10.22675763
  402      1       1.79942549        4.15941489       13.19674415
  403      1       5.67640316        3.31467297        4.06953630
  404      1       7.41895803        8.25592496       13.04211237
  405      1       1.05332704        7.46645949        8.68103383
  406      1       2.73097584        9.67871613       16.11115195
  407      1      25.27838202        2.22287378       10.43863927
  408      1      19.30162011       26.74704425       10.32072935
  409      1      18.39926832        2.70319951       10.46432159
  410      1       7.56962420        5.40236933       17.90659401
  411      1      18.31036874       17.15949654       25.90287458
  412      1      11.92302354       10.92733590       18.36206389
  413      1       6.16166226       25.18842249        0.22004137
  414      1      14.52052403       21.27174501       23.80722026
  415      1       3.09735236       15.62669650       12.25305922
  416      1      12.19946256       14.22078293       27.15439166
  417      1      21.61433650        1.50095467       10.70488330
  418      1      22.94540094        0.02890886       12.95972732
  419      1      10.68191086       26.43800513       12.67246420
  420      1       6.61741137       10.53518029       21.77163421
  421      1       0.61382177       12.42688253        4.11426061
  422      1       7.73335327        9.76032720        3.81192511
  423      1      19.89714626       23.24839244        8.91538346
  424      1      20.71889416        8.45785327       10.68712036
  425      1      22.40267678       24.11930220        0.97303046
  426      1      17.26067117       20.71675903       25.97941722
  427      1      12.75835441       18.46674284       11.16504955
  428      1       3.37692472       25.05338978       14.76839744
  429      1       5.82663330       12.97628385        4.03160543
  430      1       7.40019829       13.01167014       26.94536576
  431      1      24.50738443       22.83058461       14.81440183
  432      1      22.73456930       22.93986468       11.27705432
  433      1       3.56389897        3.31295710       24.39695242
  434      1       0.62081585       22.79700069       16.42679882
  435      1      21.11565660       25.78118714        6.70855346
  436      1       8.42744656       24.93943074        9.39997970
  437      1      15.98971554       23.80738837        8.79433833
  438      1      12.97980932       25.38943054        1.09387590
  439      1      20.74521680       13.12302127       16.68239851
  440      1       3.84566580        7.93582287       17.15673571
  441      1      17.24758063       25.19255124        7.40158372
  442      1      17.28056552       15.78187126        8.71401354
  443      1      10.10006086        5.07219695        0.85314253
  444      1      15.32769447       14.91518072       11.91892628
  445      1      11.02273229        9.08649018       12.57693684
  446      1       4.37074422       22.30057186        3.81597126
  447      1       4.93177579        7.03000507        6.03694453
  448      1      24.84853281       18.98525455       24.78108878
  449      1       6.45824966       27.35699117        4.39136566
  450      1       9.40615440       27.40591940       17.73072049
  451      1      27.56461631       26.69884786        4.05839415
  452      1      19.61953099        9.29868187        0.09659339
  453      1       1.94914098       22.87177596        0.54681986
  454      1       5.95936150       10.85434229       19.50809994
  455      1       0.57492071       21.62111535        2.00945931
  456      1      17.33241355       11.98958094       17.36141350
  457      1      11.18173204       24.31104519       13.70067223
  458      1       4.62538721       15.23041021        0.68061424
  459      1      22.04224860        3.99022580       12.17945172
  460      1      20.14610423        5.59943167       15.39035839
  461      1      19.81226000       12.85015388        1.89274592
  462      1       4.40241804       11.46660114       15.76676839
  463      1       5.28122675       27.51879989       24.47963408
  464      1      13.23437035       15.12454143       13.16850271
  465      1      23.11569158       22.75401276       25.10962269
  466      1      17.10358972        9.29247241       11.97555963
  467      1      24.61627186       20.19067436        4.66427251
  468      1      21.86030128        2.64231854       22.68983598
  469      1       7.76811869       16.41167842        7.51379055
  470      1       5.33707583        6.85875183        3.71728613
  471      1      25.62395465       11.66633263       25.06330978
  472      1      22.87768482        1.63804962        4.84877936
  473      1      22.51097781       11.99203388       15.41562767
  474      1      27.56325698       21.91865754       22.97275938
  475      1      11.43617234       21.26486822       25.87297538
  476      1      15.72628151        2.28465488       20.25293866
  477      1       7.77844511       11.45867427       18.15891760
  478      1      22.78956247       12.29936781       27.22550788
  479      1      11.82835333        1.29770361        4.52289097
  480      1      12.20474093        4.62353603        8.36268305
  481      1      22.35000000       19.73233581        5.11910296
  482      1      14.56327843       23.08857370       15.46179030
  483      1       6.72969476       14.43633951       23.62185001
  484      1      17.87536508       19.14558762        1.63662677
  485      1      18.70578989       14.94986020        1.80037809
  486      1      24.65922390       24.99496004        6.01820944
  487      1      19.43820148       22.24240690        2.82266114
  488      1      16.12623857        4.85381001       11.64930669
  489      1       9.36431978       17.14719685       16.86400234
  490      1      12.23118641       15.81660099       15.26164340
  491      1      11.94591321       20.35901151       16.44159537
  492      1      27.23123428       15.75182417       13.01112999
  493      1       3.16718675       22.95868803       15.73236049
  494      1      19.10499269       26.11110921        2.08877422
  495      1      17.90799091       22.81493616       18.62253924
  496      1       0.05669058       16.92916938        8.45546066
  497      1      23.48874545       25.10165270       24.92998229
  498      1      20.17999850       27.10685501       24.64112740
  499      1      24.65194160       15.47144098       15.89123482
  500      1      18.82767444       13.34644619        6.32011305
  501      1       6.37822436       21.99621907        2.38891569
  502      1      18.14740737       13.89406083       23.63678240
  503      1       1.61585472       19.39742839       13.64522022
  504      1      22.38294609        0.38898452       15.26820166
  505      1      17.90098783        5.41616711       14.73299709
  506      1      16.06739155       10.07935762       18.01779478
  507      1      22.05085155        6.74910835        9.74078841
  508      1      12.87348672        9.37762883        2.71520543
  509      1      13.79581070       27.60886343       13.55532778
  510      1       3.02336545       15.58909932        4.16536188
  511      1       2.51359148       16.43644905       16.15345043
  512      1       8.67560065        8.09083092       23.82900296
  513      1       7.92270767       16.83641659       26.24045433
  514      1      17.86578219       26.59521977       22.13229044
  515      1      12.69957873        4.77869612        6.08814318
  516      1      13.19800155       23.74377316        4.64629488
  517      1       7.11138917       20.17475058       22.97890126
  518      1       1.37471604       10.17511564       12.54825288
  519      1       9.98924984        5.53998380       18.07249388
  520      1      18.62661413       25.41561506       25.38377536
  521      1      23.18186375        1.98210856        9.06318823
  522      1       3.94805057        5.51479697       10.18747616
  523      1       3.12399052       15.91961740       22.68632930
  524      1       4.11625046       12.23735738       13.53966731
  525      1      16.27955272       17.18236238       24.80342774
  526      1       2.51808770       26.56370617        0.08713970
  527      1      12.88506659       26.00296015       20.57598630
  528      1      20.85007951       18.40091799       14.34699656
  529      1       3.91748963       21.81945723       27.16255196
  530      1       4.64620206        3.31287137        6.18068981
  531      1      14.81409475        8.24406435       12.21843105
  532      1       7.33605473        7.78979818       18.15249506
  533      1       6.47866409        3.32814596        7.58704679
  534      1       4.88137315        8.18806177       24.38681876
  535      1      14.26324847        3.48609411       16.81708384
  536      1       3.24326375        3.68184617        0.50521302
  537      1      23.75713594        6.77418910        3.09349231
  538      1      19.01939262       21.35662365       16.98702798
  539      1      20.53637351       23.15823781       14.54579115
  540      1      23.72257117        3.73562891       19.35197513
  541      1       1.20308413       23.82579699       20.12711011
  542      1      12.92725268       22.99690709       23.56275534
  543      1      13.39607038       23.64961535       13.37748984
  544      1       2.62749246       25.65787163       20.00291618
  545      1       3.01473253        1.57161374        6.11785993
  546      1      24.68474859       11.70584257       22.86415453
  547      1       8.01685731       18.91989029       19.89925676
  548      1      10.90790306       19.28639225        9.91711407
  549      1       4.68371837       22.18859774       24.85958430
  550      1       3.38933251       12.61208644        6.72489001
  551      1      23.85894529        2.39543329       12.65347865
  552      1      17.60545996        6.37822143        2.56899369
  553      1      18.54608795        3.15807737       17.72737213
  554      1      17.56474970        1.82066785       25.19384645
  555      1       6.78035466        3.23124658       22.24026880
  556      1      18.99856981        1.64306462       27.29653102
  557      1      17.77255022        7.93661615        0.83596955
  558      1      23.13397636       23.26025546       19.26934963
  559      1      22.82568654       25.32643963        2.83675614
  560      1       0.12453803        7.40957227       20.13176820
  561      1       7.71964014        4.74992632        1.44487603
  562      1       0.68131416       23.72833674       12.62964447
  563      1      20.28296117       16.69950796        2.13269776
  564      1       7.56787186       11.52509441       12.06368693
  565      1      26.83857854       24.26816624        6.73287659
  566      1      26.71446747       13.07787407       19.75767802
  567      1       0.83791351        2.12072121        7.13247106
  568      1      17.36465304        3.28872919        7.18767667
  569      1      27.31677492       24.96041949       16.03397876
  570      1      20.88819854       22.00110663       25.56851995
  571      1      13.38757472       15.21407900        5.98010702
  572      1      17.09499269       20.54362038       13.54917396
  573      1      25.51897681        0.29676128       17.43124985
  574      1       2.61336234       26.98037772       22.10141894
  575      1       8.90877615       18.80331092       25.50819923
  576      1       6.26388184       24.41812739        2.37852095
  577      1      13.13579526        7.49227323       17.74527213
  578      1      14.58255171       19.61614592       21.85959625
  579      1      15.72134468        8.52919657       21.98772242
  580      1      27.15140927       21.57708615        9.68855499
  581      1      21.18095883       18.69286457       23.69388546
  582      1      23.29318212       23.79497879        4.51662996
  583      1       6.69063844       21.05705773       20.76169533
  584      1      24.43756074       15.95877445       10.11059548
  585      1      20.64729697        6.85490462       24.87979533
  586      1      14.63550638        2.03721139        9.76172417
  587      1      25.87096703        5.79805843       11.16556995
  588      1      13.58033501        9.82025181       15.15939489
  589      1      17.20889725        4.74990785       22.98636312
  590      1      21.40485438       20.15398578        7.24231493
  591      1      18.69404478       16.84605286       12.05353044
  592      1       4.91283837       14.39496651       12.99859256
  593      1      11.01657600       14.75001274        3.08660719
  594      1      20.90981573       20.31722692        3.21983309
  595      1      17.84239570       27.64613754        0.72548993
  596      1      25.37818252       26.81701466        4.64984281
  597      1       0.20996972        4.96801327       17.52038732
  598      1       7.40691537        4.36562664       14.11717464
  599      1       8.90297728        4.42502817       25.07688407
  600      1       7.50065129       14.20282881        2.99577724
  601      1      11.73611086       15.91821298        7.75268447
  602      1      12.04483900        1.88462992       23.65121711
  603      1      17.56506611        4.20390379       25.22273762
  604      1      13.71881417        6.29378934        9.21103977
  605      1       3.55905357       12.22661434       26.50038539
  606      1      17.59402249        1.65989011       12.37475258
  607      1      27.18556711       17.11842780       18.87977411
  608      1      27.63296950       26.65515956       25.05997237
  609      1      16.25401112        6.85389535       15.77291782
  610      1      25.85195066       26.41998623       21.70969450
  611      1       4.52025380       12.73091268       19.43013972
  612      1      19.50574378        9.18657199       16.42274740
  613      1      25.38850562       23.29290770       20.12164437
  614      1      11.51642071       26.54747602        4.79705369
  615      1      18.01557660       10.45656920        9.98599402
  616      1       2.07367594       19.44881236       25.10897541
  617      1      13.65270533       26.17304821       10.16132053
  618      1       9.01815526       20.82991870        7.34493936
  619      1       1.97812431       19.93149051        7.17561105
  620      1      10.76311529       19.86346041       22.18677902
  621      1       6.89168899       22.81772191       16.95170185
  622      1      11.95267225        9.57116512        7.23270335
  623      1       5.78919405        0.91580710       26.67011794
  624      1      16.85999579       15.92439299       13.31072273
  625      1      15.21017650       11.40842437        7.17953609
  626      1      22.64267747        3.89853346        7.81932151
  627      1       5.83193463        4.25252242        9.61445238
  628      1      16.85765371       17.39730456       19.70627821
  629      1      10.67798581       22.02638478       23.39672723
  630      1      16.15076147       17.68279608        2.25286830
  631      1      20.63020715       13.57439960       19.10625622
  632      1      24.37812523        6.38899863        0.75960380
  633      1       0.91640747       14.66585821       16.68709688
  634      1       1.28135199        2.83577270       24.02653941
  635      1      18.29319767       22.22419049       14.90135478
  636      1      16.91786482       26.44358080       26.64836846
  637      1       5.67961941       17.65152343       25.98171996
  638      1       9.06603432        8.82844241        0.13796986
  639      1      23.61049184       22.08385896        1.15035374
  640      1      27.50475085        3.92364153       25.58335566
  641      1      11.00693580        1.22003112        8.91523866
  642      1       9.12741979       15.10150619        4.44605101
  643      1       4.63746528       20.11035137       20.14210529
  644      1       1.36269581        2.68889287       11.16658547
  645      1      14.50687636       27.12890507       21.87534337
  646      1      19.34692961       13.68604328       25.66356837
  647      1      21.32645555       15.77130871       27.47551232
  648      1      12.30308512       15.21990959       24.92545585
  649      1      21.52311340       18.28429585       16.71967870
  650      1      20.11551781        6.55170617       19.09346915
  651      1      26.91750567        9.66153191       11.70822598
  652      1       5.23371158       14.02382320        9.27958258
  653      1      25.30618075       12.03334549       18.20034261
  654      1       8.06201464       20.89254035        3.61606561
  655      1       2.02373020       12.78981269        2.26812598
  656      1      11.86052924       13.05435310        5.95821834
  657      1       6.64255610       16.05072868        1.80655430
  658      1      26.19150034       20.34982074       26.26510383
  659      1       7.89270231       22.66019844       19.06004242
  660      1      16.24625938        7.54141687       26.71556216
  661      1      19.39612788       18.52433108        3.31965516
  662      1       0.93746821       16.23700960        0.73031545
  663      1       1.17326278       25.35181780       14.21335453
  664      1      17.13122744        9.79444108        2.45417695
  665      1      15.12096470       14.67729186       17.62561210
  666      1      11.98426445       12.63528830        3.60698250
  667      1      13.03390554       19.86783816       12.95406019
  668      1      21.15806247        9.07702950       22.11328748
  669      1      20.74143104        4.98242432        8.85542003
  670      1      24.08182268        7.55090390       19.21482455
  671      1       8.48689223       11.71770073        6.84543300
  672      1       7.59737063       13.64139792       15.30807071
  673      1      16.38921749       27.32114999        7.45846881
  674      1       1.55822705       12.82566618       10.25105956
  675      1      25.69151162       11.54882710       10.93137342
  676      1       8.22090273        4.81023054        7.07296201
  677      1      20.42129454        4.75524084       17.60318083
  678      1      10.42400423       18.61987755        0.95331827
  679      1       1.93687890       22.75565326       22.07119034
  680      1       3.38404726        2.45659428       19.76124609
  681      1      12.62766370        8.66596430        5.08267910
  682      1      19.93353608        1.96457294       21.61624907
  683      1      15.33153797       23.84830737        3.74572989
  684      1      23.30840124        9.74658980       15.92069722
  685      1       2.29973076        8.82170605        3.19797406
  686      1      22.45181477       10.15902015        2.59200405
  687      1       4.24020871       12.30869372       24.29276654
  688      1      20.74747977       26.36506027       12.32136944
  689      1       5.30220784        8.61421232       18.87842178
  690      1      17.16977245       15.59173063       18.25649804
  691      1      20.95444628       10.23699153        7.23365734
  692      1      15.61290719        5.28273526       26.23230272
  693      1      18.97003857       17.80033815        5.72453593
  694      1       1.89847246       25.49856684       25.68768122
  695      1      21.36006503        6.52066047        2.17416635
  696      1      23.53889174        8.15736915       27.13470611
  697      1      19.03024795        0.68105119        5.12886436
  698      1      20.98266126       11.77551930        3.67501507
  699      1      23.50692296        8.31097016       21.64828190
  700      1      21.16250848       27.59766499        5.13526338
  701      1      25.05153590        8.74448021        8.74596860
  702      1      10.73392975       23.11480062       21.04758766
  703      1      10.51676002        6.75094185       12.08926319
  704      1      22.33058608       21.69019300       14.98301660
  705      1      19.03700989       15.64541792       22.10350645
  706      1       0.23223180        3.11530058        3.58791696
  707      1      10.78499479       26.76521485       21.39555535
  708      1      15.08195530       19.43232363       14.25793055
  709      1      16.43322361       27.62007292       20.59861927
  710      1      23.32657935        4.45276076       25.61710813
  711      1      14.48861428       17.39144466        0.48262411
  712      1       8.70601562        0.55977310       24.11829945
  713      1       5.47334357       17.70577310       14.60020603
  714      1       2.45032901        6.49517489       19.92409545
  715      1      16.30626574       20.11311684        9.80125883
  716      1      10.17793100       19.03741426        6.26026909
  717      1       1.34875947       27.52834108       13.40782591
  718      1      11.32500304       10.69785484       25.48825209
  719      1      25.41984404       19.42880751       16.05915890
  720      1       2.00692213       20.00629768       18.03717015
  721      1      19.14815567        2.61682026        3.79954696
  722      1       3.72520716       10.08907733       27.35232784
  723      1      24.03509068        4.80885562        4.31031338
  724      1      12.27949788       11.81735851       27.43389374
  725      1      10.18077337       13.40825994       20.26927600
  726      1      23.33476839        8.83350395        4.30677108
  727      1      13.69407899        1.95064513        5.96606043
  728      1      23.42508065        7.29033955        7.93058462
  729      1       0.12430019       16.05040360       24.35447095
  730      1      26.72020553        2.69279485        5.63432678
  731      1       0.40835712       21.19931947       25.13207980
  732      1      26.29817436        4.40593794       19.31252982
  733      1       7.29204492       17.93591430       17.85640839
  734      1       1.47252930       11.55507737        6.00911807
  735      1      19.22900490        2.16836835       14.20924860
  736      1       7.72067501        1.85404822       20.40502165
  737      1      20.93168350       14.33420486        6.46189928
  738      1      12.81276606       11.68014750        7.59900691
  739      1      13.79142952       18.73190307        7.77572747
  740      1      23.18189864       14.49672470        2.86554282
  741      1      19.15166648       11.50273434       15.98057503
  742      1       8.30556845       13.63331556       18.85018304
  743      1      22.94206117        6.77969749       25.25986830
  744      1       7.06894771       21.80327946       24.66326935
  745      1       3.34759870       21.33434689       10.64953107
  746      1       0.97268904        0.49186467       23.50955930
  747      1       6.05210122        8.73271544        2.51460934
  748      1       5.72194512       17.28669855       10.79657425
  749      1       9.98930270       26.22764723        6.54502981
  750      1      18.48126981       19.43381955        9.38648846
  751      1       9.21707909        1.73528952        0.07382408
  752      1      22.67685055        2.64689822       15.76315130
  753      1       3.78403514       20.27860769       23.84604266
  754      1      15.73347134        3.37773469        5.42754029
  755      1       7.11696423       18.87612410        4.39976008
  756      1      23.12770296       17.04218831       27.09895827
  757      1       3.79120738       20.22435240       12.71724854
  758      1      25.62348737        9.62555235       26.46232051
  759      1       8.79757134        8.94843637        9.41131612
  760      1       0.11052575       17.97683595       12.27284663
  761      1       3.16981282       17.19076778       13.98511101
  762      1      11.03508804       19.68231829       14.38497479
  763      1       7.42668756        1.66472020        3.65722178
  764      1       2.59646930       15.03266811        1.95750557
  765      1       3.73356469       17.74974133        4.12446503
  766      1      18.97128727       18.65912051       19.25596644
  767      1      14.54914577       18.12293257       25.94840892
  768      1      18.59695386       23.02074567       20.85230577
  769      1      17.08148658       16.51340145        6.52235349
  770      1      20.72163226        8.84248577       18.44569144
  771      1      24.41241132       13.15349958       16.26960382
  772      1       8.70466668       23.39326796       24.14460959
  773      1      14.02821674        1.94979625       18.62927869
  774      1      20.14094835        2.67541894        1.55227847
  775      1      10.46254821        7.19904900        9.75853885
  776      1      20.61850370        5.54259983       21.14614229
  777      1      15.61225386        2.90205430       12.89861116
  778      1      13.27201047       11.83237505       11.27989345
  779      1      19.43852397        9.08580511        8.75605914
  780      1       7.41549595       26.92688162       16.24380504
  781      1       4.79564128        7.68011562       10.03112678
  782      1      24.54857576       26.81019717        2.50916974
  783      1       3.63642127        5.98794148        0.48971839
  784      1       3.72962309        5.13331820       22.98754141
  785      1      13.66121155       23.64874075       17.60668409
  786      1       7.18672393        6.90962901        6.80642391
  787      1       9.65642400       13.62236768        6.22157814
  788      1       4.96773908        1.93886623       23.26149257
  789      1      27.25844087        2.15195530       20.28921767
  790      1      22.08687740       15.38669837       10.02883222
  791      1      21.50829883       13.49346026        8.66195363
  792      1       6.51605119       12.01402918       23.63806009
  793      1      23.96008820       12.20152130        6.05190875
  794      1       6.13583556       26.18262457       19.21607615
  795      1      27.47892759       25.04501889        2.42732039
  796      1      25.02581037       15.17535010       12.28575133
  797      1      25.72074094       13.65791000       21.93130839
  798      1      15.14388069       25.41849576        2.12155439
  799      1       4.51093287       14.24193069        5.42786213
  800      1      10.11663614        6.22655019       24.04803536
  801      1      10.67921134        7.50452327        4.38640354
  802      1      26.46429374        6.49756775       16.42146692
  803      1      20.06383136       20.80966707       23.63557067
  804      1       9.49707045       22.94846943       12.90334754
  805      1      21.17943438       23.61896320        5.71480758
  806      1       1.82817542        9.22898991       26.48165585
  807      1      10.74689886        3.42111870       17.70427140
  808      1      21.09042262        3.71337699       14.31565912
  809      1      21.00886358       20.06159579       26.91935593
  810      1      27.56409687        6.26550779        4.95474659
  811      1       8.59750600       17.02872003       21.50933966
  812      1      15.86907943        5.97270477        8.21716871
  813      1      16.53121817       11.78085296       26.84684981
  814      1       8.34576401       14.69379002       25.27595755
  815      1       7.61317615       24.68106162       22.51993430
  816      1      26.42576608        7.87257581       24.84036595
  817      1      14.52906781       10.94195329        0.10620368
  818      1      11.65985946        3.05454293       12.16295223
  819      1      10.89091256       12.39759274       14.48622740
  820      1       1.68032678       18.19729294       19.55600031
  821      1      13.79950850       21.07905869        7.65606190
  822      1       0.76881974       11.33335722       19.85866175
  823      1       0.74358447        3.61483552        9.01319489
  824      1      10.26214639       14.70931530        0.88916554
  825      1      27.35489338       23.86354355        8.95821508
  826      1       6.17139416        5.22699523       15.95792877
  827      1       0.86893115        0.89739084        2.97278755
  828      1       5.90448965        5.62956927       22.08735007
  829      1       8.82501676        9.61735290       11.76667660
  830      1      26.64179452       10.90996520        3.45510483
  831      1      19.59617949       11.24580087        5.50956347
  832      1       2.20291492        5.38996544        8.53251408
  833      1      15.47052645        0.08166950       15.24189553
  834      1       4.14682657        0.92468794       21.36205831
  835      1      25.87000188       12.25745286        1.69250735
  836      1       8.36523411       24.63014924        5.70757901
  837      1       2.66906862        4.44390341       21.00892274
  838      1       8.04537774       24.60112995       15.90540132
  839      1      22.03264886       26.71228507       19.76957437
  840      1      22.23429013       23.16190887       21.43726466
  841      1      10.43993280       15.40187846       21.61752973
  842      1       5.23876617       18.81972816        0.40440170
  843      1      12.32048553       10.20730776       20.47820751
  844      1      24.96496529       15.66105259       26.59045414
  845      1      13.29621075       24.80927791       24.91120113
  846      1       2.21166701        0.50371913       11.20823006
  847      1      24.30213509       15.50073509       22.73460013
  848      1       5.88992655       23.19846562       12.80146861
  849      1      19.15383595        7.95983441       12.47848306
  850      1      17.49770394       21.45145742        1.77513631
  851      1      15.65495432        2.46384297       15.21507642
  852      1      16.71335093       10.64095725       24.69604090
  853      1      15.14987959       13.33322343        5.68246613
  854      1      11.67300296        2.35817585       19.61729739
  855      1      11.47038211       22.58694318       17.27794697
  856      1       1.91733808        8.47437493       14.14777644
  857      1      23.21586929        0.77200914       22.85716998
  858      1       6.87688779       21.04866246       15.41898609
  859      1       9.01728137        4.33047614        4.99937238
  860      1      10.47258050       24.38844547       15.96632855
  861      1       3.33563965        5.23311652        6.36118497
  862      1      14.27278911        1.50035740       23.21258874
  863      1      20.23138562       10.23728350       20.30775852
  864      1      18.55395126       12.39928984       13.79296827
  865      1      27.23812792       26.33764690       17.89953635
  866      1       6.79476493        8.17789810        0.32700625
  867      1      11.04768796        5.26772684        4.50668415
  868      1      22.76428392        0.29189085       27.20779325
  869      1      23.60890340       17.09323128       17.25078540
  870      1      20.98625428        4.68890830        0.60747612
  871      1       5.25774046        8.60247772       12.12329953
  872      1      25.03014178       10.05889406       21.30370799
  873      1      13.97958087       16.46675743       16.66680669
  874      1       3.41209875       17.02088895       10.20035865
  875      1       4.43868260       15.25022983       16.74658448
  876      1      21.84299786       13.79908622        0.99625085
  877      1       2.96918369        0.84053642       14.82431361
  878      1       3.13351582        6.59018778        2.80702662
  879      1      26.10153906       27.61968669        9.29796978
  880      1       6.80886150       11.33251660       15.99145439
  881      1      15.07779655       18.46654358        4.21747127
  882      1      22.96918662        9.28184849       18.18024005
  883      1      13.78501906        5.83132619        1.97300108
  884      1       5.24529868       26.28327908       10.84183672
  885      1       2.74569506        7.04896548       24.06941541
  886      1       0.36460091       27.63117001        7.89649844
  887      1       1.92835823       24.52308892        9.17593679
  888      1      18.81630748       17.19339946        9.74644556
  889      1      22.46469953       16.67881812        3.02004544
  890      1       1.51383453       15.51885161       26.27261524
  891      1      12.49254413       16.61602842       21.04811073
  892      1      13.61794297       21.89322725       11.77983752
  893      1      25.90749853       25.74619701        0.59472219
  894      1      12.17623044       27.19340963       27.39864413
  895      1       2.85266884       13.81464910        8.65066056
  896      1      19.47306448       26.29390044       14.47562621
  897      1       2.96830797        8.83464892        9.06631367
  898      1      22.84127410        4.41029833       21.45772377
  899      1      25.19091844       26.56678842       13.36977141
  900      1      17.53720330        7.21799250       22.95684753
  901      1      19.23703860       22.84050761       11.08859445
  902      1      17.10849404       26.00878009       14.45164990
  903      1      26.68727961        5.98783047        0.92015436
  904      1      17.79301537       14.38225152       14.78709743
  905      1      14.23964503        8.74920758       27.06025255
  906      1      17.13241076       26.95836358       18.35338631
  907      1      23.94910391       27.59599965       20.78820232
  908      1       0.62794536        2.80142507       16.75357139
  909      1      11.30964537       26.50518472       16.63660846
  910      1       9.60895516       26.09563481        2.09403738
  911      1      26.76919819        7.82632657       10.15085508
  912      1       6.02450969        2.47926498       10.94529909
  913      1      20.40765664        7.83602037       14.66092470
  914      1      22.09114255       26.44795777       23.56513749
  915      1       6.70647567       11.29204279        5.37452833
  916      1      24.60794132       22.17018625        3.31182665
  917      1      22.21623065       20.19966311        1.27557622
  918      1      26.52650884       10.07983303       17.37355072
  919      1       5.37475875        7.35545778       15.50119158
  920      1      11.31832420       12.09322378       23.56318834
  921      1       8.92930686       20.87564628       13.96557920
  922      1      13.57618019        5.24309172       22.62783169
  923      1      17.52299672        8.47813961       24.98321514
  924      1      17.28462536       24.52635913        5.12759066
  925      1      26.12104401       14.99452141        8.66774161
  926      1       5.74731770       18.79997865       12.56143126
  927      1      11.65782817       27.66072951       14.47089394
  928      1      16.44758695       12.02848715        9.10233790
  929      1      13.65949832        1.27001051       26.74190700
  930      1      17.76430221       19.48281266       17.32887756
  931      1      19.62138238        1.12717294        9.29706485
  932      1       3.54474977       13.10451788       17.27944033
  933      1      20.01475306        4.41007170        5.04136057
  934      1       2.22088084       26.89055524        9.10579760
  935      1      20.86769966       15.72457857       20.19629648
  936      1      15.42702148        7.31310297        3.11497895
  937      1      14.88123094       10.62374239        2.38937066
  938      1      22.41415145       11.95817123       12.96282335
  939      1      14.74121875       11.80368962       14.48835395
  940      1       8.14141880       22.21406444        5.58881904
  941      1      15.67901243       17.27154030       15.03331316
  942      1       5.71046196       21.98186400        5.77525916
  943      1      12.64849826        7.80668549       19.99001082
  944      1      12.22738937        2.13854404        2.35779850
  945      1      26.09620636        4.24095356        9.45977208
  946      1      15.45234145        0.51853123       25.31580243
  947      1      12.48670982        8.30887123        9.20642688
  948      1      15.56562337       22.41328091       18.70756435
  949      1      21.40107759        3.22070865       24.95852081
  950      1      25.28196339       20.71163181        8.55041822
  951      1      10.40406013       21.56737472        9.26016435
  952      1       8.71131692        9.50412617       21.83022804
  953      1      18.00026225        7.48754852        7.48162129
  954      1       9.96356566        2.74624233       10.34836822
  955      1      23.68699584        8.02921277       12.76383080
  956      1      20.99975624       15.18247930       25.18740697
  957      1      13.46846082       21.71484728       27.00000493
  958      1      13.62808365       24.45965678        8.58272255
  959      1      15.17436460       15.99283950        9.83342846
  960      1       9.62710412       13.50142021        9.84044429
  961      1      21.05059222       17.12329589        8.89976161
  962      1      26.92606796        2.37464452       12.23332675
  963      1       6.09035745       27.11694458        6.83026909
  964      1       8.66259219       14.67700507       11.69676146
  965      1       8.01483119       20.88479058       26.57692405
  966      1       7.40899854        8.92387881       15.48499207
  967      1      18.35644655       11.25858789        0.79749139
  968      1       4.54249618        7.49053104       20.75444373
  969      1      11.90084658       13.25774480       18.60065544
  970      1      26.34799808       21.24117141       19.53882318
  971      1       0.33994970        8.05697332        6.48626526
  972      1      18.32916978       11.60992127       23.16911497
  973      1       4.62242965       22.93510060       17.64004950
  974      1      11.26169435       10.05499707       14.69088059
  975      1      25.11752932        1.49138916       24.05414582
  976      1      20.88277767       23.97000416       12.36259544
  977      1      25.91755534       12.29805071       14.72711615
  978      1      17.17005526       27.26385110       11.15495512
  979      1       0.94707745        0.67855639        0.58819272
  980      1      14.22753406       11.62191707       20.77082935
  981      1      23.22180494       25.90250465        7.68454890
  982      1      15.17638698        3.47120041       22.27962598
  983      1      24.21324042       13.47465478       25.83772029
  984      1      13.04345116       17.46974313       18.75558976
  985      1      25.82817420        4.84502141        5.77249437
  986      1      14.86433513        5.78917508       17.38784550
  987      1      11.55717049       19.89638449        4.58254145
  988      1       3.56336215        3.26185023        2.90264551
  989      1       8.62036401       17.35209295        5.46699964
  990      1      25.79477047       13.59630608        6.52379304
  991      1       3.96579907       23.66477671       23.14061834
  992      1      17.66363404       17.20558527       16.37189880
  993      1      13.30044011       25.52918455        6.25797686
  994      1      22.34852974       13.33240396        4.76003470
  995      1      24.36812735       18.61252108       13.91613513
  996      1      19.24608737       25.25828661       20.89181851
  997      1      12.25435802        5.33205047       12.55824352
  998      1      14.30592431        2.17474566        1.08663066
  999      1      18.04126280        9.65397199        4.73974635
