run_id:  1012
total_energy:   -3030.0510473061404
  1000 atoms
  1 atom types
  0.0   27.664  xlo xhi
  0.0   27.664  ylo yhi
  0.0   27.664  zlo zhi

 Atoms

    0      1       0.03786735       18.72640824        6.76602920
    1      1      14.70728438       18.61232058       19.59525201
    2      1      19.84282229       15.24163123       15.86556651
    3      1      17.39103270        8.35871548       17.15822251
    4      1      12.87722230       12.81297763       13.33425860
    5      1       8.83458748       16.66191294        0.72046427
    6      1      13.88104877       24.00183330       26.97836072
    7      1      24.73527478       22.85749135       12.53796064
    8      1       0.68360488       25.97518661        6.18919604
    9      1      26.77361561       27.58170965       27.09927512
   10      1      26.26936996       24.06221941       26.55292589
   11      1      24.72461489       12.82360832       12.63962323
   12      1      12.02546751       16.23304785       11.52007716
   13      1       8.77654188        2.83117600       23.39345572
   14      1      22.30534115       12.23327776       22.82375432
   15      1      16.03113679       21.60794880        8.00723215
   16      1      22.73029297       17.42006329        5.21714051
   17      1       5.63715088        9.39100830       26.30558867
   18      1      24.99701971       10.26789888        5.06812983
   19      1       8.64069245       12.92904367        1.24626514
   20      1      25.64715465       18.08478357        1.78045854
   21      1       2.99414809       23.60746624        7.23477233
   22      1       4.98970948        2.30134062       17.97276500
   23      1      10.40869989       14.38328581       23.84423354
   24      1       0.40489133       14.90086689       19.05635954
   25      1      27.42075677        9.49430355       21.16407392
   26      1      12.91383613       18.21650944        3.58168317
   27      1      22.33928439       19.08924562        9.29988445
   28      1      17.71514384        3.24927965       15.57447466
   29      1      27.31538172       22.35441758        5.62404731
   30      1       4.80830217       21.73279114       14.26682182
   31      1      16.70493802       18.85254870       22.83967267
   32      1      16.97196985        2.94696066        3.36316228
   33      1       9.80647497       16.62337033       12.27366048
   34      1       8.22513865        6.07194640       12.54383141
   35      1      15.75047515       27.20646046        3.58939419
   36      1      10.63222404        6.59151867       20.12090015
   37      1       7.06793807       26.92324119       23.02722656
   38      1      21.87400855        2.75390690       18.08753918
   39      1      10.72482948        0.53895548        1.29814311
   40      1      10.81208819        7.15185080        0.00216803
   41      1      10.62640205       25.33570276        8.65857950
   42      1       4.49144109        0.64253848       11.52841268
   43      1       8.93416635       18.79453856       23.14266919
   44      1       1.35645225       13.15637160       26.41069744
   45      1      23.72389061       11.01702785       19.47467977
   46      1      14.35907826        7.66216280       14.48365778
   47      1       6.61431161        5.00177134       25.70087557
   48      1      14.99906846       20.39704616       25.90424825
   49      1       9.76356171        4.82396374        8.97785610
   50      1       1.39774527       18.50417517        1.06996550
   51      1       7.36555651        2.40048367        1.29798161
   52      1      24.52365322       19.95615448       22.70088748
   53      1       0.17303309       21.44142418       13.45353500
   54      1       6.88645591       21.88525713       11.08043692
   55      1       4.66502601       24.46158594       19.59980950
   56      1       1.89289210       18.81259001        3.35323510
   57      1       5.74500457       11.73581512        9.28806907
   58      1      27.17665485       11.70712484        7.34941065
   59      1      23.37537732        4.45728575        0.10029885
   60      1       2.39768684        3.03876184       15.26522398
   61      1      18.82112053        0.74303264       23.33629849
   62      1       8.11180985       11.69340503        9.26972949
   63      1       5.42755448       27.55304756       17.40621786
   64      1      20.47351801       21.79253242       21.56745941
   65      1       7.06548415        5.11209813        3.62496252
   66      1      15.98707645       13.22275776       15.96629055
   67      1      24.43821427        7.25620174       23.49021839
   68      1       0.20034918       12.29308211       24.59177732
   69      1       7.16847617        2.97860188       18.44877035
   70      1      10.41842433       17.35407265       14.59615552
   71      1      13.74122519        9.71425481       17.36541773
   72      1      13.31281982       21.12591922        1.53638794
   73      1      24.86079068        3.52041575       14.77805047
   74      1      26.34878238        1.83232333       15.79412851
   75      1       2.66956101       10.66504977       10.62607818
   76      1       2.59977539       23.51693445       11.21778417
   77      1       7.74202637       19.93980133       12.15665715
   78      1       3.85958664       16.82042366        7.78386383
   79      1      23.71312435       26.57961960       16.61899347
   80      1       6.98754137        7.51691565        9.03684332
   81      1      18.81144141        4.01541372       21.36937717
   82      1      11.04812019       18.98864252       26.23276434
   83      1      14.75305124       27.42248774        5.80181087
   84      1       0.73767210       21.96582245       18.59277081
   85      1       5.66602806       17.97540071        2.74870230
   86      1      26.85168189       25.14510948       19.93599710
   87      1       9.59843032       14.96749376        7.99934362
   88      1      25.27451475        3.84237745       24.39780027
   89      1      24.21642281        5.80375774       15.84774366
   90      1      11.77392752        4.50724902        2.43298936
   91      1       0.55422841       12.56486203       15.61990789
   92      1      19.99837378        0.46328613       15.61963772
   93      1      16.10851782       10.26272033       20.35103832
   94      1      22.83521910       14.22536747       24.05679314
   95      1      17.76097466       20.83927731       23.70998958
   96      1      10.14293119       19.78663976       19.78739224
   97      1      12.97331301        9.46469403       11.25143602
   98      1      25.51292666       10.07540862       15.25749950
   99      1      27.55121842        6.23532584       26.16246444
  100      1      22.75654422       11.59582947        8.01780005
  101      1      15.05105882       26.05471167       23.99505175
  102      1       9.00258211       14.69305859       16.85010763
  103      1      18.93305821       22.90129788        5.01528284
  104      1      17.90359671       26.51748237        4.08757496
  105      1       2.94340569       25.42718617        5.82586781
  106      1       9.69560430       10.01661507       18.14175291
  107      1      11.20300470        5.35489913       22.13154879
  108      1      23.80553952        1.38707913        2.87599547
  109      1      16.06206632       24.54279056       27.65275073
  110      1      13.87582032       13.63832118       19.49363462
  111      1       1.79084861       15.67868334        7.47728006
  112      1      11.09480523        6.91753924       16.52492996
  113      1      12.86959771        7.75929111        0.99102914
  114      1      23.73888217       24.34671894        9.55101134
  115      1      17.10600510       14.58767250        5.22560461
  116      1      19.84190828        4.91249490       25.91779457
  117      1       8.66238829        2.36903907       14.72511310
  118      1      18.94012595       19.03507026       12.97660058
  119      1       8.89416687        2.11521250       17.06175532
  120      1      12.54666120        5.88389969       14.81790824
  121      1      18.14170241       15.16499119       27.07537876
  122      1      26.95538169       14.21695307        4.58243402
  123      1       5.83773428       19.22693192       16.48334353
  124      1      14.47132935        6.80271830       21.04828169
  125      1       2.64152869       12.34731445       20.87283050
  126      1      19.67381017        6.28950528        3.73142553
  127      1      11.13331533       13.93030215       16.30661835
  128      1      20.91274403       16.66390901        6.54935581
  129      1      14.97761274       22.23447648       20.94179558
  130      1       5.04373159       10.98085305        7.07677620
  131      1      14.89688306       17.25599821        6.19850119
  132      1      25.03796674       25.13265692       15.30984839
  133      1      16.89216790       22.76555839       22.47748421
  134      1       5.23928322       23.16884260        7.68143244
  135      1       6.07614939       20.99465743        0.34191237
  136      1       9.50124474        2.00764140        4.97111528
  137      1       3.02385304       19.46289082       27.33237125
  138      1       6.29707986       15.00200108       11.19428219
  139      1      12.93529128       15.87509559        3.72034734
  140      1       9.60865036       24.49309356       26.11160559
  141      1      26.83045884        0.62085337       13.80617139
  142      1       9.16129066        9.69313460       25.60659219
  143      1       3.86862076        8.98466628        6.86076102
  144      1      16.95838887       23.49726900       11.04238674
  145      1      21.60195788        8.60861369        1.02146793
  146      1       1.84466996       21.84796390        5.98077599
  147      1      11.42840956       26.89470477       10.26721016
  148      1      13.74210072        1.83725450       11.99370173
  149      1       7.35544984        1.16330511        7.91836678
  150      1       0.38854614       12.11889676        0.59187409
  151      1       0.05053416        9.04298718        2.35843455
  152      1      15.45572191       20.63960054        4.73567171
  153      1       7.79292622       25.62431420        3.65583880
  154      1      14.09165910       14.39646615       23.38969536
  155      1      24.78372251       17.63500197       19.27207938
  156      1       2.07750368       24.90662659        1.73201306
  157      1       8.71960023        8.28150657        5.44592616
  158      1       1.28090871       14.16139701       12.23010975
  159      1       2.12883843        6.89977000       26.34177805
  160      1       4.27704643       20.58316113       17.92528877
  161      1       5.53195233       16.36162284       18.46812037
  162      1       5.06241763        1.12023980       13.80184176
  163      1      27.45419068        7.08122344       14.33248364
  164      1      12.84098009       15.09939493        9.56832110
  165      1      19.44719333       23.60435361       26.71609747
  166      1       5.85413646       15.25417068       14.88557438
  167      1      11.06113465       18.62998922       17.92453801
  168      1      14.69047588       18.30042057        9.84672922
  169      1      26.64364994        7.03225222        2.89771233
  170      1      11.50988307       24.53338629        2.76161769
  171      1      20.63409203       15.33999030       12.05621506
  172      1       7.39405099       17.91611615        9.26307778
  173      1       1.75229123       14.48038364       21.28020677
  174      1      16.31292281        9.22737585        6.32201860
  175      1       2.25711624       21.11009733        3.71797189
  176      1      18.08950182       13.55936357        8.54952277
  177      1      25.74752304       23.33917619       22.61639814
  178      1      11.55076967       18.19427555        7.91788492
  179      1      25.56245964       18.05295555        4.06176225
  180      1       8.28027912       25.22199730       19.00569364
  181      1      22.65123006       21.01685005       18.75133008
  182      1      15.40692905       21.77258152        2.74085064
  183      1      21.14514342       26.92395142        2.91661960
  184      1      24.97798870        1.48234852       19.39271666
  185      1      21.91732560        8.31031323        6.15364479
  186      1       0.84970239       23.37039850       26.27105893
  187      1      12.59470233       18.45054306       22.55389037
  188      1      17.46794893       22.61331025       27.39937068
  189      1      14.91069590        5.55943326        6.08187635
  190      1      14.19789254       25.59125478       12.39239631
  191      1      10.81424706        3.09135219       22.00833977
  192      1      25.76696692       25.28751415       24.10805131
  193      1      21.90752561        1.10545463        1.64900120
  194      1      10.26454227        3.55341561       26.73539314
  195      1      18.06285060       24.75319903       17.51105329
  196      1      21.34206072       20.64036928       16.93562854
  197      1      16.46044889       25.42181106       12.34220908
  198      1       3.40064864       26.87230702       16.45328068
  199      1       1.22093146       18.05169660       10.21027935
  200      1       3.98790191       15.93968523       26.19751697
  201      1      16.02010704        5.80511788       19.40687971
  202      1      21.96363370       20.52885671       11.22531735
  203      1       3.75980764       24.85041955        3.49651413
  204      1      18.28635883        5.69737705       12.33537652
  205      1       9.14057107       10.58027949        1.86546375
  206      1      26.81292523        5.52389622       21.26423831
  207      1      26.26691714        7.92689894       18.29609298
  208      1      26.87767948        4.87120353       13.21864054
  209      1      12.93764489        8.99661869       25.11272515
  210      1       4.71098750        9.29336661       22.34398148
  211      1      24.81116865       22.22628061       26.76752999
  212      1       0.18202346       17.83722011        4.69105672
  213      1      23.20222458       16.70664637       20.95895823
  214      1      13.19650111       25.92640312       18.13154869
  215      1      14.16697934       15.29976714       21.17897529
  216      1      26.26521150       15.95382066        0.98710831
  217      1       4.84971032        3.19938682       26.41980140
  218      1       3.81565928       18.61221185        6.34619263
  219      1      20.48157183       10.73219961       23.78187358
  220      1       9.91332737       22.37008263       27.23575096
  221      1      11.38796977       26.02013997       25.47553321
  222      1       1.74176158       12.29415800       13.59203540
  223      1       9.78925399        8.86728380       16.11393837
  224      1      17.29668273        3.81148908       19.58145541
  225      1      16.56245919       11.39601684       12.92901511
  226      1      25.54417584       14.36620174        2.59320115
  227      1       6.14004932        5.96877537        0.12501318
  228      1      13.65575935       12.08322281       22.99258329
  229      1      26.73809000       20.22067806       21.63683721
  230      1       7.61937618        5.59825693       10.26373523
  231      1      22.42853586       19.83529000       13.51035162
  232      1       4.37899273       12.13871000        2.32699664
  233      1       1.14247497       19.04061652       21.64448422
  234      1      21.37069542       16.11152573       14.09977358
  235      1       1.79419932       27.04289561       18.23540402
  236      1      17.07895667       24.94619499       23.61785212
  237      1      20.08401975       24.04429867        1.28933991
  238      1      14.20574847        6.09641821       11.43898291
  239      1      22.25281582       25.21391601       17.94039260
  240      1      14.66660565        9.98018456       23.68244782
  241      1      19.53554825        7.82725886        5.40359661
  242      1       5.42259759       18.69571579       23.73416089
  243      1      25.66757946        3.38122115        0.47459568
  244      1      12.06612111       12.84527301        9.58313605
  245      1       6.89131230       24.94726334        7.52675502
  246      1      19.03016758        5.05946330        7.12232036
  247      1      12.16200189        3.65760040       15.83479997
  248      1      22.52871958        9.81648718       11.61639434
  249      1       1.41365429       18.82892698       16.11330713
  250      1      16.08492602       14.17202463       26.59131822
  251      1       2.95067512        1.14811749        3.78229886
  252      1       5.16720063       13.09354317        0.25907372
  253      1       5.74762493       23.46936144       21.52847334
  254      1      11.83616783        6.85379116       25.48257677
  255      1       0.99005874       15.72573350        5.21879376
  256      1      24.27305973        0.21817529        8.01916626
  257      1      24.61688467        5.16811194        7.81930475
  258      1      15.46755957       27.56904243        9.58055049
  259      1      23.39120487       18.15485478        1.43377003
  260      1      21.18923050       19.98086544       20.31811385
  261      1      25.55031653       16.71495651       24.54838301
  262      1      25.02928857        1.41176734       26.63774130
  263      1      19.96241310       16.90040053       24.08463815
  264      1      12.83259652       18.76272522        1.40393402
  265      1      17.49351581       21.21365107        6.11084091
  266      1       7.51851804       26.62238157       10.75893099
  267      1       9.36899830       24.98428634       21.05367732
  268      1       6.96008270       19.92143955        8.21730438
  269      1       5.44168580       21.47997756        9.34685572
  270      1      16.36811286        3.65869713        9.43749169
  271      1       4.90984435       10.91706324       11.64106055
  272      1      21.79281242       12.01959127       20.40992743
  273      1      15.99038682       21.48646439       11.68491752
  274      1       0.00554160        9.80623854        0.09881170
  275      1      22.34217541        3.75245183        5.46260017
  276      1      17.80363745        7.27869835       19.16726299
  277      1       4.88559353       17.15629797       21.97332713
  278      1       8.92559697       22.89376836       10.55922847
  279      1      20.26063297       24.80610148       16.38128567
  280      1       9.61476930        9.63860350        7.13243907
  281      1      26.78009425        0.84368510       22.32167897
  282      1       1.93874218        4.89274070        4.26717235
  283      1      20.98334705        1.18858068       26.05855203
  284      1       2.61547540        5.84806995       17.63960426
  285      1      22.79179483        7.69821510       14.82599918
  286      1      15.50871610       12.60478191       11.19418313
  287      1       4.38543088       14.69388969       24.25503682
  288      1       1.45331699       10.30612801       24.29268179
  289      1      21.44961100       25.39523631       21.63429952
  290      1      10.39270938       11.24344122       21.56150700
  291      1       4.09836649        4.09107027       16.61911605
  292      1       2.88837116       20.64096101       21.73628588
  293      1      23.48360673       25.81668825       27.23822783
  294      1      20.69224777        1.03095058       19.44862086
  295      1       0.11497859       14.09251854       23.00814782
  296      1      17.88636756       17.58263550       21.25178826
  297      1      14.28631873       15.04565869        0.23492634
  298      1       0.56681705        8.46367766       23.27892057
  299      1       4.77073373       27.09949002        0.60541367
  300      1      19.38038949       25.37834058        8.36806080
  301      1      14.64232976       14.68572392        2.48661707
  302      1       7.23889370       11.05071594       25.63818320
  303      1      17.26113393        4.37659201        1.57265473
  304      1      19.94826493        7.18945236       22.60712186
  305      1      16.81936868       23.90194836       15.60160074
  306      1       4.06033883        9.88837907        2.02632478
  307      1       1.55069507       20.27964169        9.49385030
  308      1       9.47316842        0.82970571        7.06313417
  309      1      24.96090322        0.99472563        5.99574102
  310      1      20.17089042       16.98202387       18.22704514
  311      1       0.87378352        3.07615309       27.64887662
  312      1       3.12129853       10.99098913       22.77230111
  313      1      23.80025981       22.20930297       23.02394479
  314      1       1.38391731        1.64776684       18.75886208
  315      1      14.89079334       27.49563850       17.57510241
  316      1      13.24681079       21.45138304        5.42312156
  317      1      25.63326985       18.95540132       11.96416263
  318      1      24.62366770       18.44551516        9.79976837
  319      1       4.25598588       24.73708381       12.37743842
  320      1       7.76451873       24.31400450       13.63644225
  321      1      12.54311909       17.65818057       24.84589249
  322      1       2.01968096        9.30937493        5.50775733
  323      1      20.30072825       13.00628288       12.26421033
  324      1       9.91686753        0.72398269       19.94258084
  325      1      23.94231846       22.59700671        8.03787279
  326      1       8.33008083       26.44199236       12.85019572
  327      1      23.44266303        5.99045776       11.52571086
  328      1      14.80946745        7.73827176        5.24721300
  329      1      21.65841070       22.33150801        7.61539575
  330      1      23.75301273       16.28325321       13.93914192
  331      1       3.79726656        5.18016617       12.55790669
  332      1      22.59318355       18.79712143       21.83124651
  333      1       0.68336730        3.79493873       21.88163179
  334      1      10.99828784        2.23364504       14.26489183
  335      1      26.22634424       21.17487341       11.83865739
  336      1      19.63471368       20.47020877       11.19233636
  337      1      24.84238942        5.22294399       22.54087502
  338      1      19.88676945        4.35153272       11.01483323
  339      1      19.06417706       19.70029166        7.09990728
  340      1       8.78881197       13.05385449       13.38568698
  341      1      11.43645541       11.05439876        1.92809146
  342      1      18.73792097       19.18859543       27.05441461
  343      1      26.90732636       15.84777086       15.41684803
  344      1       3.54588745       25.86669253       23.98640075
  345      1      10.11313470       21.99503811       19.15020644
  346      1      24.06286525       10.91836062        0.85563355
  347      1      13.47636065        5.13744119       25.08644922
  348      1      25.88382685        8.62064952       13.46946658
  349      1      26.23384197        9.55803266        6.91764045
  350      1      18.21635279        1.12390171        7.26970486
  351      1      26.84387517       22.90641561        3.34557385
  352      1       8.10046728        0.30055066       26.39729265
  353      1      12.93617169        2.30963362        8.25629230
  354      1      19.73902369        9.00122335       25.46578707
  355      1      16.11613046       14.91829155       24.34278352
  356      1      19.73765006       12.44594881       10.01350574
  357      1      18.20611018       13.28315523       19.18759512
  358      1      22.63960672       18.81763392       25.64273213
  359      1      25.85968823       25.23438475       10.01329729
  360      1      15.12900228        4.40028635        0.67439186
  361      1      12.37364259        3.04756686       25.69839358
  362      1      10.16712196       20.42547803        2.71800306
  363      1      26.13562523       24.70991964       12.16398193
  364      1      16.19351001        1.16946821        2.09048009
  365      1      18.99623106        0.78877568       17.81550143
  366      1       6.62442541        6.75032805       24.01269518
  367      1       6.65701533       15.71066927       21.69690256
  368      1       8.37561333       25.88500219       27.55335722
  369      1      15.57241741       20.09839535       18.02219823
  370      1      10.85360690       27.50078735       23.69051146
  371      1      25.37589967        3.13165258        2.76482306
  372      1      23.16392307        5.74702854       17.97832699
  373      1      14.33491599       12.64893210        3.50185253
  374      1      16.81021885       15.47206745        2.99021530
  375      1       6.22682562       14.50215261       19.71883474
  376      1      26.13949465       20.46407504        6.44425999
  377      1       9.04675250        8.36377984       19.78505845
  378      1       3.95969172        7.33725295       13.57802939
  379      1      27.04542690       12.78674838        9.48943540
  380      1      24.74215758       19.95371184       18.43446538
  381      1      12.73298987       22.29051691        9.45945184
  382      1      13.04808226       23.70069967       21.27534014
  383      1      23.92114056       10.48777657        9.79291138
  384      1      18.11578651       11.38368202       20.78063686
  385      1      14.30986967       20.61363405       16.08559928
  386      1       5.84181678       19.68562502        6.20221079
  387      1      27.06958077       19.76361659        0.83749050
  388      1       4.15462381       17.76535323       19.87597798
  389      1       1.06075113       10.92802405       17.32434687
  390      1      11.11945593       22.31194612        1.71823244
  391      1       1.60374572       17.63606609       23.51509903
  392      1       3.77671043       27.23617785        7.15531641
  393      1      26.44769825       21.51869175       15.38234249
  394      1       7.37168676        0.42109625       14.26345005
  395      1       4.51833749       27.18862432        3.06098497
  396      1       5.50716826        3.49507597       13.09307264
  397      1       5.62727748       15.31261711        7.29609910
  398      1       6.31636180        0.04357435       20.90704367
  399      1      27.08051278       17.85281364       16.58449445
  400      1       9.02747077       18.39197820       10.89891988
  401      1       7.88267154        1.26677988       10.22319491
  402      1       1.81026574        4.16906615       13.21558890
  403      1       5.65742183        3.30224713        4.05809867
  404      1       7.41448414        8.24569213       13.01672202
  405      1       1.04124260        7.45122125        8.66446480
  406      1       2.72023096        9.67020964       16.09479144
  407      1      25.28426564        2.22591569       10.50103307
  408      1      19.29996819       26.71975307       10.35571777
  409      1      18.39392849        2.68119883       10.47368400
  410      1       7.56524025        5.38210016       17.89884985
  411      1      18.33416546       17.22090598       25.82288400
  412      1      11.86404737       10.88488956       18.34456863
  413      1       6.14381349       25.20436186        0.23199406
  414      1      14.51782819       21.30430242       23.84012581
  415      1       3.08987475       15.61496266       12.23892475
  416      1      12.21010888       14.24325104       27.10582060
  417      1      21.60505503        1.49563928       10.72851136
  418      1      22.92215164        0.00853376       12.96543967
  419      1      10.67612139       26.41786451       12.67440001
  420      1       6.60992006       10.54101997       21.75717636
  421      1       0.59833251       12.37673403        4.09241161
  422      1       7.72682684        9.74652553        3.79487775
  423      1      19.89970800       23.22625863        8.95307718
  424      1      20.70814997        8.44787306       10.67659970
  425      1      22.42673507       24.17897662        0.99831775
  426      1      17.27010881       20.77315530       26.00758379
  427      1      12.76772034       18.44703910       11.17520834
  428      1       3.37905183       25.04657543       14.77261632
  429      1       5.82868557       12.96232899        4.01793518
  430      1       7.39708018       13.01033909       26.93842480
  431      1      24.48875104       22.81154517       14.85403391
  432      1      22.71494797       22.90543126       11.33094842
  433      1       3.56491929        3.32422988       24.38804125
  434      1       0.62029771       22.79381978       16.43921341
  435      1      21.10868630       25.74939926        6.75120863
  436      1       8.42576949       24.92627857        9.40117851
  437      1      15.98880241       23.78797646        8.81572718
  438      1      12.98243753       25.40202829        1.11120851
  439      1      20.72671872       13.12913435       16.67710805
  440      1       3.83869175        7.93026834       17.14008965
  441      1      17.24625671       25.17757879        7.42233926
  442      1      17.27617147       15.76784077        8.70541128
  443      1      10.10327129        5.07984689        0.85112328
  444      1      15.32837086       14.91607641       11.93759794
  445      1      11.01647277        9.07082178       12.55827162
  446      1       4.37777362       22.28983081        3.82209618
  447      1       4.91645842        7.00588648        6.02414761
  448      1      24.89535731       19.01773430       24.82360318
  449      1       6.44987825       27.35645123        4.39393229
  450      1       9.41308870       27.38746867       17.73808203
  451      1      27.58491817       26.65384862        4.12237206
  452      1      19.60194137        9.32298391        0.07390633
  453      1       1.95715149       22.88841020        0.57076543
  454      1       5.93789173       10.84592364       19.49175743
  455      1       0.58533289       21.62438433        2.02962825
  456      1      17.32630265       11.96451284       17.34262403
  457      1      11.18534827       24.28954028       13.71139228
  458      1       4.62428056       15.21848032        0.68144670
  459      1      22.03152367        3.98411653       12.18956392
  460      1      20.13128540        5.58758058       15.38416282
  461      1      19.79582365       12.86729246        1.86555988
  462      1       4.38538663       11.45683994       15.74543173
  463      1       5.28690525       27.53223983       24.49515253
  464      1      13.22396742       15.10135393       13.15560899
  465      1      23.14537400       22.82502033       25.15831229
  466      1      17.09437147        9.27600462       11.95607585
  467      1      24.61971190       20.18323644        4.68052288
  468      1      21.86256112        2.66517066       22.67557456
  469      1       7.77158450       16.39645488        7.50263105
  470      1       5.31710841        6.83842924        3.70713813
  471      1      25.63022280       11.68248648       25.03824967
  472      1      22.89880677        1.53555046        5.02446245
  473      1      22.49718054       11.99838512       15.40426025
  474      1      27.58351716       21.95398157       22.99967281
  475      1      11.44450709       21.27347050       25.88203796
  476      1      15.72428238        2.28003950       20.25523329
  477      1       7.74439621       11.44172788       18.13211405
  478      1      22.78519586       12.31138300       27.21065886
  479      1      11.83661261        1.29330281        4.52392023
  480      1      12.20564419        4.60904392        8.35589312
  481      1      22.35258350       19.72465435        5.13599155
  482      1      14.56822797       23.01435399       15.50739448
  483      1       6.71916526       14.43920105       23.61965082
  484      1      17.89076640       19.16265846        1.62728212
  485      1      18.68742414       14.96856959        1.72379026
  486      1      24.65318857       24.92343412        6.10333726
  487      1      19.45287368       22.26058435        2.84111458
  488      1      16.11826773        4.83409742       11.65003421
  489      1       9.29765704       17.14316053       16.82494108
  490      1      12.21299462       15.79884397       15.23405689
  491      1      11.93831157       20.33860431       16.44297442
  492      1      27.22374201       15.73993612       13.00699563
  493      1       3.16732680       22.95211816       15.73567894
  494      1      19.12324839       26.14940246        2.09864888
  495      1      17.90093991       22.75598949       18.66090665
  496      1       0.05840239       16.90679492        8.45415485
  497      1      23.51444667       25.17797257       24.98999556
  498      1      20.21750913       27.15547478       24.68776124
  499      1      24.64842698       15.47089781       15.89190969
  500      1      18.82279449       13.33805155        6.30245757
  501      1       6.38783132       21.99894593        2.39156291
  502      1      18.16762451       14.05557058       23.45191981
  503      1       1.61452686       19.38662227       13.64801815
  504      1      22.36842596        0.37378848       15.27840186
  505      1      17.88768534        5.39717793       14.72751142
  506      1      16.04523980       10.06437499       17.99819243
  507      1      22.03949351        6.73665610        9.73965331
  508      1      12.89541172        9.39026705        2.69393023
  509      1      13.79517003       27.58119999       13.56826844
  510      1       3.02451295       15.57309786        4.16108585
  511      1       2.50660438       16.43083102       16.13903514
  512      1       8.67257470        8.09252797       23.82415955
  513      1       7.92201892       16.84265538       26.23634395
  514      1      17.88417345       26.62493752       22.15749426
  515      1      12.70181622        4.76509902        6.08204520
  516      1      13.20458552       23.73534537        4.65910499
  517      1       7.10267813       20.18610436       22.98676414
  518      1       1.36826962       10.16691151       12.53256773
  519      1       9.98169158        5.52302331       18.06611795
  520      1      18.65150786       25.45882018       25.41479335
  521      1      23.18769412        1.96626701        9.10892234
  522      1       3.95049621        5.50744278       10.18056088
  523      1       3.11436429       15.92538566       22.69447852
  524      1       4.10635575       12.22666372       13.51813008
  525      1      16.35080557       17.28626472       24.60845485
  526      1       2.49857713       26.60580316        0.12166815
  527      1      12.89323122       25.99652278       20.58987173
  528      1      20.83432321       18.38244223       14.37780013
  529      1       3.92167546       21.82966093       27.17922578
  530      1       4.64122262        3.30079226        6.17512286
  531      1      14.80611049        8.22740168       12.20797936
  532      1       7.31528377        7.76458161       18.14878183
  533      1       6.47742217        3.31819144        7.57840325
  534      1       4.88683122        8.19425415       24.37198003
  535      1      14.25963728        3.46358548       16.81951697
  536      1       3.20996598        3.69590556        0.50318097
  537      1      23.91424388        6.77343558        3.08306328
  538      1      18.96535603       21.20282308       17.08147776
  539      1      20.48401415       23.09142655       14.61245231
  540      1      23.71175151        3.74167232       19.33035077
  541      1       1.21228488       23.83873650       20.14029453
  542      1      12.91816713       23.01699482       23.58418996
  543      1      13.40246788       23.60552380       13.41375081
  544      1       2.63448543       25.66848789       20.01189412
  545      1       3.02448645        1.55124162        6.14335595
  546      1      24.69035231       11.72339596       22.84052560
  547      1       7.97510130       18.92195461       19.89928650
  548      1      10.91716872       19.27234653        9.92273055
  549      1       4.68582715       22.20009218       24.87562242
  550      1       3.38205218       12.58765024        6.70415550
  551      1      23.84926230        2.39053840       12.67223199
  552      1      17.63388048        6.38173916        2.54423460
  553      1      18.53864977        3.14501934       17.72968912
  554      1      17.58037497        1.84721065       25.21253287
  555      1       6.78598515        3.23411601       22.23880128
  556      1      19.03128421        1.67892585       27.31159506
  557      1      17.76466309        7.95953644        0.81917792
  558      1      23.14675021       23.27945925       19.29458055
  559      1      22.83093275       25.35316454        2.88546828
  560      1       0.12243250        7.42054846       20.09858373
  561      1       7.71660744        4.75019422        1.43860211
  562      1       0.68363350       23.70263906       12.65339247
  563      1      20.27773513       16.70497869        2.12739950
  564      1       7.56002225       11.50949146       12.03708524
  565      1      26.86215508       24.23464810        6.78063719
  566      1      26.71378919       13.08866763       19.74336837
  567      1       0.89451056        2.06962113        7.25010329
  568      1      17.37875057        3.28506343        7.19362476
  569      1      27.31122822       24.95446690       16.04858840
  570      1      20.92396659       22.06143598       25.61812980
  571      1      13.39645654       15.21330061        5.95000080
  572      1      17.08549917       20.48677140       13.58283952
  573      1      25.51352209        0.29406301       17.43958306
  574      1       2.62053153       26.98852186       22.11287419
  575      1       8.91356314       18.80816420       25.50669265
  576      1       6.24996014       24.42516204        2.38807962
  577      1      13.11882670        7.47432731       17.73425766
  578      1      14.60750585       19.65155746       21.85440052
  579      1      15.70091323        8.54278983       21.97078437
  580      1      27.15747101       21.54656524        9.71274956
  581      1      21.25736477       18.77281779       23.75037507
  582      1      23.28516358       23.78707431        4.54810820
  583      1       6.67725914       21.07489158       20.77217926
  584      1      24.43420319       15.94555308       10.10511804
  585      1      20.62098616        6.90339879       24.84166121
  586      1      14.63567166        2.01896242        9.76769886
  587      1      25.86390913        5.79909583       11.18162720
  588      1      13.56024704        9.79775466       15.14447636
  589      1      17.20000753        4.76822014       22.97622263
  590      1      21.40076804       20.13288035        7.26017007
  591      1      18.68561759       16.82940106       12.06461604
  592      1       4.90298267       14.38352217       12.98056217
  593      1      11.02451155       14.75454308        3.06070873
  594      1      20.91586174       20.32600193        3.23943194
  595      1      17.86367992        0.01803725        0.73905470
  596      1      25.40647152       26.75449330        4.77522741
  597      1       0.21102303        4.97018755       17.50212391
  598      1       7.41356027        4.35544481       14.11147449
  599      1       8.90182905        4.42947167       25.07759922
  600      1       7.50449703       14.19506111        2.98353008
  601      1      11.74632505       15.90468063        7.73655276
  602      1      12.04796500        1.88870165       23.65795374
  603      1      17.56122981        4.22926029       25.21172385
  604      1      13.71886526        6.27970382        9.20308978
  605      1       3.55435309       12.22150555       26.49627240
  606      1      17.58731336        1.64231526       12.38581214
  607      1      27.20448469       17.11941901       18.87873788
  608      1      27.64836379       26.69884470       25.08482298
  609      1      16.23991652        6.83562058       15.76423163
  610      1      25.85417433       26.43736789       21.72122893
  611      1       4.49823725       12.72167593       19.41237560
  612      1      19.49260675        9.17371437       16.40690887
  613      1      25.40255541       23.31272381       20.14662620
  614      1      11.53002387       26.54040795        4.80601344
  615      1      18.00502925       10.44249503        9.96554054
  616      1       2.07566549       19.46650185       25.12659837
  617      1      13.65319326       26.14905452       10.18141556
  618      1       9.02988261       20.81627179        7.34297852
  619      1       1.98584541       19.90843744        7.18322040
  620      1      10.74407255       19.87584473       22.18782361
  621      1       6.88938914       22.81235905       16.95426183
  622      1      11.95806256        9.56136777        7.21027518
  623      1       5.78602725        0.93912996       26.69675171
  624      1      16.85748478       15.92925481       13.35124123
  625      1      15.21165907       11.40877668        7.14829949
  626      1      22.65377634        3.87049771        7.81957109
  627      1       5.83041103        4.23916165        9.60750264
  628      1      15.99311808       16.66962539       20.22918622
  629      1      10.66856265       22.03752621       23.40567367
  630      1      16.16282814       17.69797617        2.22298530
  631      1      20.61570121       13.59322238       19.09601747
  632      1      24.32607760        6.50698953        0.66599346
  633      1       0.91200870       14.66080453       16.67606973
  634      1       1.28862843        2.84793534       24.00488152
  635      1      18.26650220       22.11230467       14.99261584
  636      1      16.93088845       26.47632578       26.67158612
  637      1       5.67730248       17.65404386       25.98542405
  638      1       9.06546007        8.82999949        0.12790326
  639      1      23.61895515       22.12306389        1.17818488
  640      1      27.48136263        3.94550548       25.50616728
  641      1      11.00903250        1.20538000        8.91736238
  642      1       9.13575893       15.09676020        4.42769023
  643      1       4.62989816       20.11630296       20.14997923
  644      1       1.37662833        2.68746951       11.20915353
  645      1      14.51470820       27.13080288       21.88902811
  646      1      19.32636999       13.76333867       25.54075903
  647      1      21.33390733       15.77680854       27.46464340
  648      1      12.32450285       15.24306529       24.86185075
  649      1      21.53470492       18.26875626       16.74965294
  650      1      20.10034201        6.55656246       19.07801404
  651      1      26.91014563        9.65604816       11.69649998
  652      1       5.22862972       14.00432053        9.26214655
  653      1      25.30386608       12.04390120       18.18223395
  654      1       8.07275721       20.88358115        3.61232287
  655      1       2.01774164       12.76594098        2.25856768
  656      1      11.86639611       13.04973488        5.93256765
  657      1       6.64476139       16.04408573        1.79810968
  658      1      26.21601324       20.38912552       26.30152446
  659      1       7.88686806       22.66598895       19.06330184
  660      1      16.24716849        7.57171445       26.69078483
  661      1      19.39945398       18.53117034        3.32082250
  662      1       0.94028423       16.23336074        0.73844025
  663      1       1.17142732       25.33966541       14.22795928
  664      1      17.11990264        9.80743391        2.42712456
  665      1      14.99975345       14.54945119       17.58828675
  666      1      11.99077883       12.64209149        3.57996014
  667      1      13.06966668       19.81510510       12.99548642
  668      1      21.14116646        9.10793447       22.08839559
  669      1      20.74825381        4.95858821        8.84851363
  670      1      24.07050043        7.56226532       19.18901897
  671      1       8.49118176       11.70600301        6.82294962
  672      1       7.57086961       13.62065088       15.27848775
  673      1      16.39197991       27.30859338        7.47719307
  674      1       1.55178214       12.81146945       10.23418341
  675      1      25.68319295       11.54170431       10.91949973
  676      1       8.21921756        4.79954977        7.06074718
  677      1      20.40937856        4.75250679       17.59805191
  678      1      10.43944748       18.61864777        0.94342995
  679      1       1.95080179       22.77296294       22.08477566
  680      1       3.38890848        2.45523441       19.76039200
  681      1      12.63642138        8.66531853        5.05407243
  682      1      19.93313924        1.97952544       21.61951522
  683      1      15.33868725       23.85240459        3.76015661
  684      1      23.29537960        9.75088165       15.90178640
  685      1       2.26591784        8.78217629        3.17221355
  686      1      22.44169255       10.15480702        2.59101174
  687      1       4.23473864       12.31002547       24.28855589
  688      1      20.73038315       26.31283980       12.36512930
  689      1       5.28782479        8.60738508       18.86447801
  690      1      16.92441928       15.40786418       18.51463428
  691      1      20.95064396       10.22306590        7.21413926
  692      1      15.61482955        5.30598351       26.22327145
  693      1      18.96989618       17.79439682        5.72320979
  694      1       1.90359951       25.53431640       25.71724935
  695      1      21.39932269        6.53166343        2.16254333
  696      1      23.49868486        8.26728431       27.05189109
  697      1      19.03474565        0.68028418        5.14941194
  698      1      20.97002848       11.77705361        3.65415711
  699      1      23.48847333        8.34351643       21.60471618
  700      1      21.14904707       27.55415165        5.17530249
  701      1      25.04400124        8.73543796        8.73927047
  702      1      10.73523601       23.11098033       21.05500862
  703      1      10.51310815        6.73621203       12.07246567
  704      1      22.30651177       21.65764062       15.03078210
  705      1      19.28610099       15.86096982       22.05862193
  706      1      27.61322240        2.92871671        3.70735265
  707      1      10.79112212       26.76232896       21.40457926
  708      1      15.11968641       19.35096025       14.33728103
  709      1      16.44070658       27.62213284       20.61592758
  710      1      23.30074551        4.52650834       25.52433181
  711      1      14.52435480       17.41125135        0.42054036
  712      1       8.70797555        0.56367747       24.12277195
  713      1       5.46074406       17.69618913       14.59325132
  714      1       2.44888160        6.49779343       19.90845016
  715      1      16.30608811       20.09330571        9.81698934
  716      1      10.18924809       19.02397176        6.25474525
  717      1       1.34619152       27.51799331       13.43428349
  718      1      11.32250041       10.71249683       25.46819245
  719      1      25.41894769       19.41804621       16.07434960
  720      1       2.00137845       20.01176506       18.04150675
  721      1      19.17231446        2.62040175        3.80855398
  722      1       3.71649171       10.08116900       27.33969206
  723      1      24.18776532        4.70593225        4.20009165
  724      1      12.27864797       11.83749632       27.40660339
  725      1      10.09439589       13.38400139       20.25862308
  726      1      23.34073565        8.80521838        4.29042026
  727      1      13.70196457        1.94465025        5.97005664
  728      1      23.41177603        7.28675995        7.93453177
  729      1       0.13442516       16.05730493       24.36726726
  730      1      26.73260795        2.62485496        5.86571845
  731      1       0.42627637       21.23454018       25.15897240
  732      1      26.29831910        4.40630915       19.28568122
  733      1       7.24887879       17.93367390       17.85506662
  734      1       1.46306772       11.52336834        5.99085954
  735      1      19.22086118        2.14396000       14.21793971
  736      1       7.72623832        1.85038843       20.40797191
  737      1      20.92725830       14.32386256        6.45284383
  738      1      12.81659126       11.67287817        7.57338191
  739      1      13.79790495       18.71673135        7.77370311
  740      1      23.17986654       14.49292665        2.85832616
  741      1      19.14930583       11.48870657       15.96513506
  742      1       8.24795899       13.62165868       18.82050508
  743      1      22.91578704        6.85175945       25.18994717
  744      1       7.06859343       21.81021935       24.67495741
  745      1       3.35721329       21.30713886       10.65533846
  746      1       0.97981920        0.50769303       23.50860125
  747      1       6.03674127        8.71665963        2.50608113
  748      1       5.72266331       17.27272732       10.78746843
  749      1       9.99501395       26.21809677        6.54609065
  750      1      18.47806587       19.41211246        9.39641539
  751      1       9.22190229        1.73943726        0.07517410
  752      1      22.66172562        2.63155789       15.77093273
  753      1       3.78392085       20.29195937       23.86006155
  754      1      15.74650310        3.37462963        5.43347094
  755      1       7.12455660       18.86636564        4.39332389
  756      1      23.13948112       17.05887727       27.11813000
  757      1       3.79601620       20.20968557       12.72418937
  758      1      25.64195151        9.62663556       26.38329208
  759      1       8.79777229        8.93438978        9.38865297
  760      1       0.10700026       17.96314911       12.27524505
  761      1       3.15946870       17.17887652       13.97126209
  762      1      11.04271569       19.66188489       14.38181434
  763      1       7.42143693        1.66002542        3.65231987
  764      1       2.59387792       15.01400782        1.95702308
  765      1       3.73817499       17.73410908        4.12315852
  766      1      19.17246423       18.72188453       19.58801767
  767      1      14.60702629       18.13779737       25.86457783
  768      1      18.61735057       23.04279441       20.87528097
  769      1      17.08223639       16.50299013        6.50984665
  770      1      20.70868781        8.84503513       18.42865430
  771      1      24.40387876       13.15569148       16.25616178
  772      1       8.70188344       23.40076956       24.15661665
  773      1      14.02665758        1.92886085       18.63429362
  774      1      20.16454550        2.73334641        1.55426655
  775      1      10.46220509        7.18521490        9.74018948
  776      1      20.60300193        5.56111129       21.13114672
  777      1      15.60375578        2.88231132       12.90587171
  778      1      13.27078641       11.81902739       11.26133498
  779      1      19.43465375        9.07255950        8.73881826
  780      1       7.41990158       26.91413816       16.24623812
  781      1       4.79231287        7.67154397       10.01207672
  782      1      24.57718280       26.80743794        2.62187225
  783      1       3.62572661        5.99192053        0.48406454
  784      1       3.73404145        5.13782796       22.97162989
  785      1      13.66625121       23.58991584       17.64412125
  786      1       7.18042565        6.89662252        6.78771284
  787      1       9.66206077       13.61315797        6.20012419
  788      1       4.97444125        1.94651416       23.26606457
  789      1      27.26169547        2.15699848       20.28444162
  790      1      22.08385198       15.36888612       10.02633251
  791      1      21.50332040       13.47976630        8.65153687
  792      1       6.51027426       12.01685660       23.63014844
  793      1      23.95235647       12.18529887        6.03447079
  794      1       6.13992375       26.18229901       19.22371064
  795      1      27.47434618       25.04130353        2.45780566
  796      1      25.01586562       15.16962487       12.28378145
  797      1      25.73547668       13.67564625       21.92220611
  798      1      15.14717599       25.42866637        2.14128542
  799      1       4.51072930       14.22246392        5.41714111
  800      1      10.11511257        6.22992771       24.04554432
  801      1      10.68677534        7.50104540        4.36791195
  802      1      26.45892025        6.49889646       16.40911369
  803      1      20.10411423       20.88229323       23.68821281
  804      1       9.49915237       22.93380662       12.90832470
  805      1      21.17602842       23.59702994        5.74822239
  806      1       1.82346279        9.22612687       26.45668742
  807      1      10.74674751        3.40624927       17.70358114
  808      1      21.07633662        3.69686475       14.32159305
  809      1      21.02918366       20.10635973       26.94912518
  810      1      27.54244237        6.20110571        4.94463126
  811      1       8.53522370       17.03918870       21.51176881
  812      1      15.87246025        5.96227415        8.21191964
  813      1      16.52603054       11.83953434       26.78996417
  814      1       8.33944039       14.69831571       25.27316934
  815      1       7.61530654       24.68665949       22.52899301
  816      1      26.41823184        7.90000842       24.76002975
  817      1      14.53124782       10.97778947        0.06475616
  818      1      11.65612160        3.03339544       12.16197768
  819      1      10.86842551       12.37724874       14.45664093
  820      1       1.66959736       18.21502812       19.56935811
  821      1      13.80414972       21.06352206        7.66456546
  822      1       0.76525160       11.34330501       19.83807073
  823      1       0.75811126        3.61000409        9.07211452
  824      1      10.26971240       14.71385774        0.86175526
  825      1      27.37392079       23.82816727        8.99872229
  826      1       6.17213196        5.21857993       15.94931209
  827      1       0.80418442        0.87194344        3.01985201
  828      1       5.91063191        5.63175477       22.07614970
  829      1       8.82282199        9.60452563       11.74198020
  830      1      26.62573452       10.84119442        3.42745873
  831      1      19.59093397       11.23662699        5.49035928
  832      1       2.20109266        5.37841744        8.53464034
  833      1      15.47118136        0.04678663       15.25882711
  834      1       4.15298713        0.92977253       21.36843894
  835      1      25.86289588       12.23042859        1.68004546
  836      1       8.37303668       24.62108102        5.70171004
  837      1       2.67269522        4.44864566       20.99490364
  838      1       8.04735583       24.58989645       15.90665550
  839      1      22.03600938       26.72835407       19.78470792
  840      1      22.26831581       23.21520331       21.47611949
  841      1      10.32848571       15.37880110       21.61029110
  842      1       5.24079699       18.82218109        0.40791124
  843      1      12.28406438       10.18914460       20.46825104
  844      1      24.97309728       15.67196687       26.60295033
  845      1      13.30097314       24.82705121       24.92933477
  846      1       2.21327349        0.49741718       11.24986478
  847      1      24.34292920       15.52669323       22.74824372
  848      1       5.89197213       23.19110344       12.79943321
  849      1      19.14321801        7.94570776       12.46665162
  850      1      17.51377430       21.46957953        1.79022009
  851      1      15.65012048        2.43471053       15.22225593
  852      1      16.71676329       10.70188434       24.64950871
  853      1      15.15482716       13.33560911        5.64465637
  854      1      11.67417101        2.35000423       19.62029857
  855      1      11.46695228       22.56386698       17.28436581
  856      1       1.91385820        8.46778545       14.13154672
  857      1      23.22907232        0.80375290       22.86734813
  858      1       6.87594716       21.04044126       15.42213158
  859      1       9.01715893        4.32245700        4.98703835
  860      1      10.47434457       24.36847079       15.97441811
  861      1       3.30787940        5.21055417        6.34554393
  862      1      14.27710288        1.50980904       23.21991672
  863      1      20.21447966       10.25415276       20.28007125
  864      1      18.54541688       12.38344448       13.77613527
  865      1      27.23902623       26.34086707       17.90746660
  866      1       6.79092382        8.17572827        0.31825144
  867      1      11.05133949        5.26358861        4.49967056
  868      1      22.87845833        0.46192749       27.27201732
  869      1      23.63152051       17.10165415       17.25950270
  870      1      20.98332869        4.74098851        0.57258431
  871      1       5.25352608        8.59342631       12.10323220
  872      1      25.02425304       10.08151872       21.27169474
  873      1      13.94007876       16.41556410       16.67274505
  874      1       3.41358846       17.00695235       10.19114804
  875      1       4.42259512       15.23934938       16.73359472
  876      1      21.83883861       13.80609116        0.98571537
  877      1       2.97557509        0.83365636       14.83631237
  878      1       3.10524222        6.55301988        2.81261083
  879      1      26.13847835       27.57080602        9.40424073
  880      1       6.78637332       11.31397891       15.96501623
  881      1      15.09164829       18.46679380        4.20123577
  882      1      22.95571498        9.29232526       18.15866684
  883      1      13.79576162        5.83645570        1.95692815
  884      1       5.18945275       26.27321825       10.79893529
  885      1       2.75526157        7.05943500       24.03816360
  886      1       0.41787592       27.57803898        7.99846230
  887      1       1.95381771       24.48267506        9.20493669
  888      1      18.81014088       17.17164865        9.75180848
  889      1      22.46180474       16.67683372        3.02196306
  890      1       1.51614926       15.51514139       26.28171616
  891      1      12.29409518       16.63346901       21.01228997
  892      1      13.62514311       21.85003329       11.81370061
  893      1      25.90300496       25.80110928        0.61500159
  894      1      12.18138399       27.20316517       27.40953696
  895      1       2.84931707       13.79165075        8.63079015
  896      1      19.46232516       26.25133294       14.51929485
  897      1       2.95810628        8.82008311        9.04572897
  898      1      22.82532040        4.43061486       21.42465526
  899      1      25.17910630       26.55279568       13.38603681
  900      1      17.52065512        7.24210158       22.93833943
  901      1      19.22598834       22.80643907       11.11992158
  902      1      17.10070723       25.95192559       14.48625456
  903      1      26.62602983        5.78051771        0.65186906
  904      1      17.77821468       14.36055611       14.77777519
  905      1      14.24258579        8.77484898       27.03688814
  906      1      17.13203415       26.92680253       18.37621545
  907      1      23.95230140       27.61467075       20.79908232
  908      1       0.62859861        2.79794932       16.75242763
  909      1      11.31728749       26.48056475       16.64738168
  910      1       9.59964301       26.09990582        2.09100272
  911      1      26.76231088        7.81813540       10.14412264
  912      1       6.02179717        2.46746518       10.94318109
  913      1      20.39766396        7.82158908       14.64941579
  914      1      22.11325209       26.49020889       23.59701676
  915      1       6.70626711       11.27714658        5.35932433
  916      1      24.61128068       22.17471810        3.33964734
  917      1      22.23266589       20.22457482        1.30392705
  918      1      26.51788978       10.08571990       17.35614813
  919      1       5.37184968        7.34652022       15.49002536
  920      1      11.31304059       12.10900521       23.54551250
  921      1       8.93227519       20.86018054       13.96708022
  922      1      13.56997433        5.24732932       22.62438715
  923      1      17.51069906        8.52563876       24.95252927
  924      1      17.29211893       24.52820625        5.14178847
  925      1      26.11493112       14.97830175        8.65672304
  926      1       5.74876024       18.78379772       12.55639179
  927      1      11.65540736       27.63693028       14.47756061
  928      1      16.43959749       12.02144088        9.08372400
  929      1      13.66550107        1.28065939       26.74929530
  930      1      17.76130264       19.29284756       17.69470851
  931      1      19.62116804        1.09708851        9.32050622
  932      1       3.52635353       13.09275931       17.26073167
  933      1      20.07352696        4.39996894        5.03596527
  934      1       2.31552628       26.84096456        9.16852484
  935      1      20.99973136       15.73598968       20.18393610
  936      1      15.44345540        7.28250267        3.10638799
  937      1      14.88368009       10.65838081        2.34657673
  938      1      22.40388457       11.95283798       12.95033495
  939      1      14.73063922       11.77215352       14.46595298
  940      1       8.15218075       22.20239087        5.58667065
  941      1      15.79592674       17.21149760       15.19451771
  942      1       5.72231667       21.96613644        5.77622518
  943      1      12.62954554        7.79251405       19.97902489
  944      1      12.23637253        2.14367649        2.35997106
  945      1      26.09492278        4.23289950        9.49320373
  946      1      15.46517443        0.53744421       25.32933372
  947      1      12.48799009        8.29654225        9.18870494
  948      1      15.56214375       22.31605407       18.75364604
  949      1      21.38617619        3.26688358       24.93189822
  950      1      25.29549688       20.68184796        8.56555360
  951      1      10.41090002       21.55276465        9.26530335
  952      1       8.69459402        9.49609614       21.82312082
  953      1      18.00900111        7.46648310        7.46197252
  954      1       9.95947260        2.72970836       10.34628472
  955      1      23.67804460        8.02684445       12.75445016
  956      1      21.04418621       15.20241995       25.18625299
  957      1      13.47408892       21.72891465       27.01783280
  958      1      13.62724630       24.43792763        8.60142572
  959      1      15.17839709       15.97863491        9.84011555
  960      1       9.62819778       13.48708771        9.82061919
  961      1      21.04382362       17.10493309        8.90300420
  962      1      26.94236751        2.37030704       12.26462804
  963      1       6.10722652       27.10405815        6.83138047
  964      1       8.65685921       14.66285545       11.67512731
  965      1       8.02074228       20.88686034       26.58285796
  966      1       7.39015567        8.90940844       15.44947656
  967      1      18.33788059       11.28692826        0.76375796
  968      1       4.53676704        7.49431149       20.74379813
  969      1      11.76835396       13.20125027       18.55509051
  970      1      26.36061490       21.26195116       19.56289265
  971      1       0.32239767        8.02243124        6.45867564
  972      1      18.32653097       11.69582521       23.11838010
  973      1       4.62133021       22.93696668       17.64527318
  974      1      11.24088787       10.03420780       14.67516308
  975      1      25.13652834        1.52766418       24.05462167
  976      1      20.85439377       23.91806620       12.42493532
  977      1      25.90755311       12.29861134       14.71296192
  978      1      17.16599629       27.23993701       11.18059964
  979      1       0.92345605        0.74323221        0.63633821
  980      1      14.17479166       11.60497620       20.74227691
  981      1      23.20718901       25.85859383        7.76308364
  982      1      15.17248632        3.47825238       22.27655510
  983      1      24.22689228       13.48381106       25.83726915
  984      1      12.86410927       17.42093959       18.70414094
  985      1      25.82043008        4.82486822        5.85160621
  986      1      14.85269822        5.77306033       17.38229707
  987      1      11.57158998       19.88320906        4.57606127
  988      1       3.53432350        3.24626514        2.89921446
  989      1       8.62786097       17.34164506        5.45848958
  990      1      25.79075422       13.57397327        6.50909848
  991      1       3.97025155       23.68180153       23.16091966
  992      1      17.70619966       16.95192505       16.80467008
  993      1      13.30776819       25.51864200        6.27500725
  994      1      22.34148684       13.32433071        4.74710958
  995      1      24.36075511       18.60023839       13.93027363
  996      1      19.25625468       25.28434447       20.90781262
  997      1      12.24703286        5.31354194       12.54943566
  998      1      14.31837884        2.18400420        1.09183221
  999      1      18.03754040        9.64503723        4.71447290
