run_id:  1017
total_energy:   -3028.4702055120483
  1000 atoms
  1 atom types
  0.0   27.664  xlo xhi
  0.0   27.664  ylo yhi
  0.0   27.664  zlo zhi

 Atoms

    0      1       0.01923431       18.75406183        6.76022150
    1      1      14.71285767       18.61570512       19.60826444
    2      1      19.84955616       15.24405079       15.87131643
    3      1      17.39608705        8.35760493       17.16419870
    4      1      12.87667180       12.81821044       13.34668231
    5      1       8.82922296       16.65819692        0.72070977
    6      1      13.93977924       23.98890451       26.98724244
    7      1      24.72733995       22.88249578       12.50205814
    8      1       0.62635048       26.00666987        6.11574482
    9      1      26.80198861       27.57471124       27.06496228
   10      1      26.30156755       24.04696859       26.51331799
   11      1      24.72583596       12.82901066       12.64810822
   12      1      12.02212965       16.23906304       11.53215296
   13      1       8.77810402        2.82665409       23.39593865
   14      1      22.31439400       12.21882146       22.82985395
   15      1      16.01990553       21.61062642        8.00595920
   16      1      22.74583839       17.40978346        5.22257429
   17      1       5.64146288        9.39247589       26.30992879
   18      1      25.00916703       10.29073679        5.07962703
   19      1       8.63505045       12.93324115        1.25135966
   20      1      25.66292245       18.07582199        1.77605269
   21      1       2.96321304       23.64069377        7.21430225
   22      1       4.98755316        2.30142671       17.96910164
   23      1      10.40828779       14.38130146       23.84429789
   24      1       0.40314662       14.89801577       19.05884226
   25      1      27.43018350        9.48257008       21.19205648
   26      1      12.88463867       18.20127305        3.60144851
   27      1      22.33789836       19.10886817        9.28104327
   28      1      17.72035936        3.24904237       15.57550448
   29      1      27.28187107       22.37949665        5.58342426
   30      1       4.80155494       21.73695414       14.26706645
   31      1      16.71088538       18.84504083       22.85991673
   32      1      16.92841411        2.97834362        3.37862852
   33      1       9.80238814       16.63143862       12.28445367
   34      1       8.22209053        6.07348046       12.55565103
   35      1      15.69897371       27.21670399        3.59977006
   36      1      10.63253652        6.59004092       20.12261071
   37      1       7.07674940       26.92264170       23.02257860
   38      1      21.88769536        2.75698837       18.08041227
   39      1      10.73159837        0.53823389        1.30079926
   40      1      10.80442438        7.15361915       27.65830119
   41      1      10.63450382       25.34249164        8.65622187
   42      1       4.49107110        0.64164470       11.51165029
   43      1       8.93868400       18.79384845       23.14294243
   44      1       1.36776983       13.16021021       26.41439609
   45      1      23.73316817       11.00397313       19.48936514
   46      1      14.36035914        7.66337028       14.49347728
   47      1       6.62347448        5.00095444       25.70747019
   48      1      15.01017542       20.38058005       25.92522549
   49      1       9.76177687        4.83059755        8.99112264
   50      1       1.40477825       18.51086844        1.06642728
   51      1       7.37572285        2.40397744        1.30819891
   52      1      24.52938487       19.93138840       22.69055507
   53      1       0.16426962       21.46239169       13.42764656
   54      1       6.87934157       21.89720887       11.08296910
   55      1       4.66572735       24.46269807       19.59389206
   56      1       1.89137737       18.83125584        3.35077309
   57      1       5.74251464       11.75442240        9.30429019
   58      1      27.17923998       11.73082675        7.36342374
   59      1      23.35902375        4.44116497        0.20569970
   60      1       2.38842453        3.03807960       15.25104741
   61      1      18.79561802        0.77419584       23.29629433
   62      1       8.10784692       11.70346673        9.29139537
   63      1       5.42285595       27.55444116       17.40020701
   64      1      20.47630962       21.78061929       21.60729305
   65      1       7.07754584        5.12689290        3.63275267
   66      1      15.99070563       13.22605934       15.97480343
   67      1      24.45691370        7.24551901       23.54542535
   68      1       0.20633813       12.28209507       24.60481507
   69      1       7.16723074        2.97777720       18.44834609
   70      1      10.42002988       17.36011307       14.60516146
   71      1      13.74340093        9.71382266       17.37191732
   72      1      13.26673101       21.10331600        1.54105142
   73      1      24.85960823        3.52209432       14.76320923
   74      1      26.34852601        1.83275732       15.77349211
   75      1       2.67055802       10.67540962       10.63701075
   76      1       2.58222204       23.55485042       11.18963350
   77      1       7.73490283       19.95034722       12.16084632
   78      1       3.85150860       16.84327323        7.79148959
   79      1      23.71428559       26.57832058       16.60343346
   80      1       6.98702718        7.52333405        9.05328620
   81      1      18.81848146        4.02844072       21.36303682
   82      1      11.04989111       18.98894603       26.23694732
   83      1      14.72683682       27.42391693        5.81738287
   84      1       0.73391407       21.96727393       18.57776649
   85      1       5.66373453       17.98507293        2.75503010
   86      1      26.84852257       25.14081740       19.92152701
   87      1       9.58992137       14.97568256        8.01433147
   88      1      25.30526215        3.82408288       24.46617364
   89      1      24.21888412        5.80298746       15.84898273
   90      1      11.76225917        4.52772931        2.44151671
   91      1       0.55601893       12.56672070       15.62937606
   92      1      20.00222067        0.46294040       15.61498453
   93      1      16.11117323       10.25959104       20.35377686
   94      1      22.84123888       14.20731183       24.06128064
   95      1      17.77109163       20.82438291       23.75426701
   96      1      10.14772065       19.78739601       19.79251256
   97      1      12.97218403        9.46909709       11.26528132
   98      1      25.51708221       10.07420533       15.26462739
   99      1      27.54528069        6.23814538       26.30237562
  100      1      22.75875918       11.60668909        8.03106206
  101      1      15.07630750       26.04899293       24.02316275
  102      1       9.00185406       14.69549614       16.85614269
  103      1      18.93431037       22.88472701        4.93753143
  104      1      17.85829337       26.53778157        4.05924398
  105      1       2.89952770       25.45488197        5.79739596
  106      1       9.69513472       10.01549041       18.14774397
  107      1      11.20365696        5.35171106       22.13082579
  108      1      23.78227680        1.45239938        2.59950048
  109      1      16.13544358       24.55625760        0.02811983
  110      1      13.87741238       13.63765346       19.49812908
  111      1       1.78403511       15.70060449        7.48511275
  112      1      11.09594536        6.91754414       16.53027968
  113      1      12.85389297        7.76502554        0.98421078
  114      1      23.70783301       24.39259654        9.48394426
  115      1      17.09328997       14.57687507        5.23878302
  116      1      19.85375073        4.91631867       25.93984807
  117      1       8.66217523        2.37082820       14.72899440
  118      1      18.94219360       19.04813922       12.96784509
  119      1       8.89557826        2.11446724       17.06518189
  120      1      12.54938309        5.88239782       14.82650043
  121      1      18.13732847       15.13070898       27.07766319
  122      1      26.95432673       14.24907633        4.59973000
  123      1       5.83866665       19.23120961       16.48373815
  124      1      14.47478019        6.80046443       21.05097244
  125      1       2.64412255       12.33925926       20.87801383
  126      1      19.63570354        6.31673710        3.74412884
  127      1      11.13312591       13.93422243       16.31436640
  128      1      20.91714688       16.66396778        6.55473653
  129      1      14.99455941       22.24079759       20.96456569
  130      1       5.04706745       11.00287380        7.09385516
  131      1      14.87983799       17.24578790        6.21935317
  132      1      25.03768951       25.13977078       15.28429075
  133      1      16.90670921       22.76554913       22.53577345
  134      1       5.21377910       23.19548805        7.68108301
  135      1       6.07866283       20.99590304        0.34225750
  136      1       9.49869338        2.02309844        4.98662991
  137      1       3.03084302       19.46020314       27.32447385
  138      1       6.29332371       15.01844351       11.20558865
  139      1      12.92594877       15.85429444        3.73045939
  140      1       9.62257144       24.49219411       26.11406611
  141      1      26.82343262        0.62724419       13.77695925
  142      1       9.16069824        9.69376501       25.60476796
  143      1       3.88102048        9.00511616        6.88440023
  144      1      16.96613871       23.50054505       11.03156195
  145      1      21.61588563        8.61167704        1.02692006
  146      1       1.81440190       21.87714013        5.96470431
  147      1      11.43431540       26.89729103       10.27430283
  148      1      13.74464950        1.83680343       11.99999009
  149      1       7.34872784        1.16783908        7.92762569
  150      1       0.40435210       12.14494387        0.60416596
  151      1       0.10097041        9.14638445        2.40611143
  152      1      15.39139701       20.62864066        4.78395276
  153      1       7.80453106       25.62304822        3.66541991
  154      1      14.08655150       14.38999314       23.39220874
  155      1      24.78504400       17.63504942       19.26851986
  156      1       2.09183153       24.90016317        1.71620207
  157      1       8.71870124        8.29600732        5.46296378
  158      1       1.27793421       14.17123717       12.23941329
  159      1       2.13136544        6.90068513       26.37752660
  160      1       4.27686292       20.58771285       17.92026179
  161      1       5.53501731       16.36100884       18.46646284
  162      1       5.05470219        1.11822859       13.79288793
  163      1      27.45225436        7.07527267       14.33014625
  164      1      12.83665789       15.10461316        9.58140848
  165      1      19.71498555       22.79161724        0.11642062
  166      1       5.85040172       15.26292647       14.88994924
  167      1      11.06652535       18.63164804       17.93122871
  168      1      14.68779296       18.30315891        9.86005190
  169      1      26.61020573        7.24656153        3.02892015
  170      1      11.52459861       24.50614045        2.74452744
  171      1      20.63261188       15.34808658       12.05997103
  172      1       7.38496366       17.93248754        9.27117196
  173      1       1.75614678       14.47228789       21.28072360
  174      1      16.30396666        9.23846654        6.33263163
  175      1       2.24462502       21.13096630        3.71051075
  176      1      18.08850416       13.56431407        8.56200749
  177      1      25.74700065       23.31000263       22.59596757
  178      1      11.53801602       18.19699079        7.93254219
  179      1      25.56181053       18.06744577        4.05744239
  180      1       8.28440150       25.22351291       19.00660365
  181      1      22.64661004       21.01602238       18.75606202
  182      1      15.28829908       21.74555513        2.80415942
  183      1      21.08446236       26.91485267        2.87545945
  184      1      24.98349915        1.48489556       19.37357775
  185      1      21.90935271        8.33320521        6.16649818
  186      1       0.87619599       23.34954699       26.24494735
  187      1      12.60072581       18.44979772       22.56251642
  188      1      17.44941657       22.51077615       27.57247221
  189      1      14.89980825        5.57461807        6.09402682
  190      1      14.20663721       25.59177698       12.40004895
  191      1      10.81433286        3.08814259       22.00928193
  192      1      25.78444494       25.28361027       24.01860134
  193      1      21.81078258        1.03103171        1.59206723
  194      1      10.26465950        3.55393617       26.73867614
  195      1      18.07108731       24.74925533       17.52057629
  196      1      21.34420109       20.64616265       16.93496597
  197      1      16.46997769       25.42094648       12.34135047
  198      1       3.39419189       26.87724384       16.44062254
  199      1       1.21198449       18.07781153       10.20546300
  200      1       3.99662828       15.94112887       26.19382711
  201      1      16.02306146        5.80296285       19.40911743
  202      1      21.96603521       20.54383677       11.20893061
  203      1       3.75783741       24.85657020        3.49129045
  204      1      18.28694297        5.70065985       12.34046743
  205      1       9.13679700       10.58706587        1.86572700
  206      1      26.81543571        5.52283674       21.29381896
  207      1      26.27484040        7.92206370       18.30761904
  208      1      26.87612713        4.87063301       13.20003064
  209      1      12.93691619        8.99559098       25.11065694
  210      1       4.70773916        9.28389642       22.35348027
  211      1      24.83052594       22.22075173       26.74124972
  212      1       0.18028960       17.85950617        4.69041233
  213      1      23.20699700       16.68839370       20.95217951
  214      1      13.20454652       25.92550652       18.14187288
  215      1      14.16848226       15.29775137       21.18425352
  216      1      26.28435736       15.94714669        0.98959654
  217      1       4.88041631        3.18962873       26.41825122
  218      1       3.79959347       18.63488376        6.35157790
  219      1      20.48710220       10.72462407       23.78760892
  220      1       9.91695548       22.36410153       27.22994535
  221      1      11.40597036       26.01512272       25.48148022
  222      1       1.74002797       12.30029953       13.59997149
  223      1       9.78964388        8.86737327       16.12035451
  224      1      17.30003732        3.80983685       19.58064683
  225      1      16.56278060       11.40091858       12.94064228
  226      1      25.55193123       14.38088933        2.60601442
  227      1       6.15305096        5.97474570        0.12842361
  228      1      13.65528276       12.07818628       22.99441385
  229      1      26.74110066       20.20128526       21.61887926
  230      1       7.61642634        5.60274540       10.27641069
  231      1      22.42681191       19.84575090       13.49890626
  232      1       4.38893959       12.15977154        2.33443279
  233      1       1.15030474       19.03117240       21.63352318
  234      1      21.36996220       16.12000754       14.10175960
  235      1       1.79055059       27.04446994       18.22486485
  236      1      17.13150226       24.92796015       23.73076445
  237      1      20.06546649       25.00874633        0.07064912
  238      1      14.20531492        6.09922479       11.45114025
  239      1      22.25783535       25.21049275       17.93262986
  240      1      14.66887549        9.97526369       23.68318769
  241      1      19.52343953        7.84793650        5.42039929
  242      1       5.42930279       18.69415897       23.72837279
  243      1      24.86957086        2.77432490        0.90760527
  244      1      12.06060269       12.85153565        9.60039522
  245      1       6.87842879       24.96326551        7.53760930
  246      1      18.99503948        5.07742749        7.14263095
  247      1      12.16608388        3.65573831       15.84128337
  248      1      22.53106864        9.82051896       11.62451067
  249      1       1.40689681       18.84104243       16.10599875
  250      1      16.07622162       14.15249008       26.59400421
  251      1       3.00498763        1.14880099        3.76845509
  252      1       5.17421001       13.10560214        0.26210081
  253      1       5.75395393       23.46836445       21.52013565
  254      1      11.83381758        6.85395519       25.47736016
  255      1       0.99109199       15.75246920        5.22632817
  256      1      24.24279041        0.28006115        7.86545157
  257      1      24.63625395        5.17071161        7.77177561
  258      1      15.47102764       27.56757245        9.58014531
  259      1      23.41259834       18.11294976        1.42498872
  260      1      21.18770005       19.98117433       20.32874919
  261      1      25.56770234       16.68604809       24.54489784
  262      1      24.96506102        1.32337839       26.63003829
  263      1      19.95859917       16.86687376       24.08491144
  264      1      12.80373107       18.73956811        1.41980091
  265      1      17.48197426       21.22020977        6.09565825
  266      1       7.56194107       26.63401444       10.77529157
  267      1       9.37640480       24.98360306       21.05500722
  268      1       6.94379387       19.93862199        8.22581351
  269      1       5.42455036       21.50556283        9.34834264
  270      1      16.36214836        3.66019603        9.44774527
  271      1       4.90948794       10.92365970       11.65316288
  272      1      21.80057063       12.00931505       20.41688004
  273      1      15.99619375       21.49300969       11.68571948
  274      1       0.02782589        9.82969628        0.12773243
  275      1      22.24882366        3.79459381        5.48731500
  276      1      17.81045531        7.27422673       19.17133360
  277      1       4.89095680       17.15482130       21.96847786
  278      1       8.92123269       22.90152321       10.56609542
  279      1      20.26397154       24.80297434       16.37864211
  280      1       9.60987121        9.64949105        7.15236433
  281      1      26.78893613        0.84992391       22.30920712
  282      1       2.00324224        4.97552743        4.27271274
  283      1      20.93583756        1.24906792       26.01857564
  284      1       2.61072891        5.84270145       17.64510764
  285      1      22.79565674        7.69782947       14.83002362
  286      1      15.50768625       12.60999400       11.20712048
  287      1       4.39077156       14.69201819       24.25252976
  288      1       1.45981155       10.29719583       24.31074595
  289      1      21.45311818       25.40341849       21.62394847
  290      1      10.39132469       11.24106699       21.56313521
  291      1       4.09084236        4.08767580       16.61350610
  292      1       2.89294982       20.63546093       21.72778779
  293      1      23.59990136       25.85129119       27.09657609
  294      1      20.70142194        1.03724180       19.43881673
  295      1       0.12355771       14.07559206       23.01194857
  296      1      17.89042710       17.57794239       21.26357908
  297      1      14.27386525       15.01815164        0.24130804
  298      1       0.56604122        8.44356257       23.31924733
  299      1       4.80035628       27.08272841        0.59140997
  300      1      19.38618932       25.39835549        8.33181923
  301      1      14.62150946       14.64117191        2.49386432
  302      1       7.24033071       11.05248125       25.63896156
  303      1      17.22572116        4.40374145        1.58517604
  304      1      19.96913183        7.18175936       22.62522365
  305      1      16.82633893       23.90232415       15.61242964
  306      1       4.08599702        9.91279696        2.03746407
  307      1       1.53138191       20.30895080        9.48272490
  308      1       9.46815118        0.83777974        7.07371295
  309      1      24.90342416        1.07930433        5.80010271
  310      1      20.17429899       16.98371833       18.22855635
  311      1       0.97617328        3.01435854       27.62547713
  312      1       3.12111623       10.98334696       22.78068439
  313      1      23.80079499       22.18295676       23.02576525
  314      1       1.38241635        1.65019942       18.75098648
  315      1      14.90191392       27.49116633       17.58310123
  316      1      13.17851803       21.46524056        5.46634523
  317      1      25.62680768       18.97347460       11.95055731
  318      1      24.62073910       18.45627309        9.78685111
  319      1       4.25414873       24.74083035       12.37879686
  320      1       7.76755849       24.31692574       13.64188278
  321      1      12.54268887       17.65391097       24.85327630
  322      1       2.03738678        9.34086530        5.53494210
  323      1      20.30327943       13.01309066       12.27346074
  324      1       9.92144264        0.72240090       19.94551955
  325      1      23.94201600       22.64469808        7.96544017
  326      1       8.35039619       26.44527460       12.86655672
  327      1      23.44590064        5.99350370       11.52051913
  328      1      14.80169310        7.75246250        5.25432340
  329      1      21.66151346       22.35935290        7.54523985
  330      1      23.75151584       16.29135708       13.93882532
  331      1       3.78448367        5.17555311       12.55725384
  332      1      22.59535624       18.77786582       21.82148890
  333      1       0.68642574        3.79494826       21.89739851
  334      1      11.00075468        2.23325620       14.27182124
  335      1      26.21482703       21.19634982       11.81161042
  336      1      19.63665236       20.48035242       11.17657097
  337      1      24.85997566        5.20820468       22.59775770
  338      1      19.88400792        4.35640669       11.01771992
  339      1      19.05753331       19.70630036        7.08619220
  340      1       8.78671472       13.05974003       13.39531347
  341      1      11.42698020       11.05584886        1.92709521
  342      1      18.73057722       19.11022258       27.08353818
  343      1      26.90381968       15.85554463       15.41539778
  344      1       3.55692296       25.85940335       23.96398179
  345      1      10.11960465       21.99659228       19.15793369
  346      1      24.09472157       10.91589876        0.87002867
  347      1      13.47378026        5.13903795       25.08211937
  348      1      25.88451082        8.62076079       13.47378234
  349      1      26.24109214        9.58040152        6.93280024
  350      1      18.20846533        1.12661266        7.25965199
  351      1      26.81479823       22.92729381        3.30155662
  352      1       8.11183801        0.29746065       26.40217349
  353      1      12.93307651        2.31819955        8.26523741
  354      1      19.75085062        8.99757205       25.47275738
  355      1      16.10949727       14.90073937       24.34632623
  356      1      19.73932658       12.45314929       10.02409283
  357      1      18.21080644       13.27817340       19.19499174
  358      1      22.67924225       18.71241697       25.60932346
  359      1      25.82182968       25.28241158        9.95971525
  360      1      15.10465394        4.42504898        0.67533886
  361      1      12.36891193        3.04967975       25.69382414
  362      1      10.14098064       20.41768042        2.72837098
  363      1      26.11853131       24.74165069       12.11708208
  364      1      16.11847253        1.21437256        2.12963016
  365      1      19.00226769        0.78786664       17.81317218
  366      1       6.62238815        6.74803642       24.01934865
  367      1       6.66149623       15.70943438       21.69501151
  368      1       8.40192905       25.88526783       27.56536416
  369      1      15.57782468       20.10215344       18.03581918
  370      1      10.86186733       27.49574561       23.69542152
  371      1      26.96339789        3.75441449        1.47444543
  372      1      23.16946910        5.74991965       17.98240801
  373      1      14.32056539       12.61420980        3.52334050
  374      1      16.79453402       15.42304529        2.99771075
  375      1       6.22764385       14.50097640       19.71897402
  376      1      26.11286208       20.48866387        6.41063824
  377      1       9.04526875        8.36108815       19.78745286
  378      1       3.95109307        7.33298771       13.58291975
  379      1      27.04507322       12.80189196        9.50343923
  380      1      24.73748281       19.95426718       18.42545300
  381      1      12.72537171       22.30075101        9.48642841
  382      1      13.05828000       23.69979294       21.28845952
  383      1      23.92257556       10.49297863        9.80151659
  384      1      18.12266039       11.37330891       20.78216134
  385      1      14.31653083       20.61618092       16.09780315
  386      1       5.82617873       19.70387951        6.21068105
  387      1      27.07348149       19.76044344        0.82760931
  388      1       4.16016921       17.76587193       19.87117933
  389      1       1.06321194       10.92737502       17.33275213
  390      1      11.09731592       22.29719697        1.71704926
  391      1       1.61109148       17.62660628       23.50493346
  392      1       3.73678403       27.25463244        7.14088993
  393      1      26.44105538       21.52998435       15.35963577
  394      1       7.37167590        0.42521761       14.26456713
  395      1       4.54956567       27.18011098        3.04824433
  396      1       5.49900987        3.49311215       13.09265912
  397      1       5.62042087       15.33379738        7.30831412
  398      1       6.32074526        0.04326927       20.90253453
  399      1      27.07561952       17.86146393       16.57932623
  400      1       9.02045355       18.39990413       10.90838496
  401      1       7.88894831        1.27772745       10.23164036
  402      1       1.79308112        4.15207794       13.18894879
  403      1       5.67943630        3.31581419        4.07304202
  404      1       7.41045139        8.24636510       13.02950010
  405      1       1.04879623        7.46246735        8.67974002
  406      1       2.71888673        9.66887625       16.10028034
  407      1      25.26811699        2.21541253       10.42844964
  408      1      19.30447741       26.72469591       10.34045997
  409      1      18.39228202        2.68489490       10.47495261
  410      1       7.56394086        5.38043025       17.89921830
  411      1      18.32477138       17.17851335       25.82326228
  412      1      11.86432359       10.88420796       18.34883038
  413      1       6.17587240       25.19171390        0.23061664
  414      1      14.53397305       21.30168315       23.85898985
  415      1       3.08417346       15.62792074       12.24367006
  416      1      12.19937675       14.23283197       27.10757966
  417      1      21.61526776        1.51312285       10.68759562
  418      1      22.91549299        0.00988230       12.94644053
  419      1      10.69176334       26.41662903       12.68720838
  420      1       6.60563191       10.53329097       21.76177289
  421      1       0.61762511       12.42687520        4.11733575
  422      1       7.73520895        9.76328495        3.80716785
  423      1      19.93744012       23.25744801        8.92487208
  424      1      20.71078451        8.45372185       10.68364488
  425      1      22.44297002       24.37029668        0.74179803
  426      1      17.28615415       20.74553346       26.06275935
  427      1      12.76481911       18.45273319       11.18738559
  428      1       3.36763394       25.05086618       14.76267648
  429      1       5.82931763       12.97865750        4.03048667
  430      1       7.39998323       13.01347387       26.93847010
  431      1      24.48557409       22.82359038       14.82159380
  432      1      22.71317489       22.92571016       11.28878313
  433      1       3.57244900        3.31701082       24.39671057
  434      1       0.61375863       22.79830183       16.42303339
  435      1      21.08972357       25.77944711        6.67995150
  436      1       8.43465762       24.93388414        9.40409026
  437      1      15.99279555       23.79110500        8.80770748
  438      1      13.00650934       25.38001060        1.09821087
  439      1      20.73088545       13.12875168       16.68163135
  440      1       3.83388748        7.92670054       17.14672648
  441      1      17.24761030       25.17172296        7.39671610
  442      1      17.27265137       15.77093111        8.71480691
  443      1      10.10012862        5.08601392        0.85101826
  444      1      15.32784707       14.92135000       11.94913529
  445      1      11.01554239        9.07371747       12.57161540
  446      1       4.36790336       22.30611958        3.82163596
  447      1       4.93110491        7.02946217        6.03700381
  448      1      24.91971606       18.98624923       24.80727936
  449      1       6.46261847       27.35798928        4.40003638
  450      1       9.41694644       27.38632293       17.74225387
  451      1      27.55164249       26.71084075        4.05876997
  452      1      19.61481170        9.32496802        0.07520781
  453      1       1.96280790       22.88099511        0.55912006
  454      1       5.93661400       10.84186804       19.49669623
  455      1       0.57339399       21.63163554        2.01385809
  456      1      17.32915380       11.96428303       17.34847563
  457      1      11.19061654       24.28667131       13.71987393
  458      1       4.63280891       15.23048184        0.68276759
  459      1      22.03502508        3.98668990       12.17851937
  460      1      20.13775475        5.58562766       15.38501204
  461      1      19.80053489       12.85113796        1.86666174
  462      1       4.38397064       11.45736616       15.75058941
  463      1       5.29336978       27.52645249       24.48208194
  464      1      13.22305484       15.10671358       13.16606808
  465      1      23.14868161       22.79698272       25.16542950
  466      1      17.09482395        9.27959586       11.96917447
  467      1      24.59412788       20.20836349        4.63554627
  468      1      21.86912081        2.68608209       22.67160885
  469      1       7.76479367       16.40839994        7.51622236
  470      1       5.33932470        6.86119613        3.71767621
  471      1      25.63808539       11.66029394       25.05365738
  472      1      22.86079986        1.64477114        4.84620175
  473      1      22.50125207       11.99615820       15.41238768
  474      1      27.58762733       21.93442459       22.98528409
  475      1      11.45942126       21.27371914       25.88491296
  476      1      15.73549098        2.26909135       20.25946685
  477      1       7.74374662       11.44011588       18.13773520
  478      1      22.80019149       12.28514553       27.21728863
  479      1      11.82773585        1.31766810        4.52911831
  480      1      12.20174134        4.61474137        8.37067305
  481      1      22.34775655       19.70418054        5.12200865
  482      1      14.57516393       23.01642840       15.52111334
  483      1       6.72239893       14.43691590       23.61686950
  484      1      17.84451371       19.04145549        1.65775596
  485      1      18.68038785       14.93438663        1.72627902
  486      1      24.61728674       24.98486508        5.97988225
  487      1      19.45637006       22.07380116        2.77014159
  488      1      16.11756639        4.83610257       11.65952442
  489      1       9.30105182       17.14537954       16.83167495
  490      1      12.21422524       15.80383689       15.24430817
  491      1      11.94369186       20.34157655       16.45160896
  492      1      27.22016978       15.75365683       13.00605623
  493      1       3.16206040       22.95907122       15.73071112
  494      1      19.04223489       26.24366886        1.95563607
  495      1      17.91102734       22.75508318       18.68114873
  496      1       0.04809893       16.93149738        8.45271733
  497      1      23.54579258       25.16313944       24.89832936
  498      1      20.22755222       27.26006444       24.63196435
  499      1      24.64680677       15.47305355       15.89122777
  500      1      18.81972299       13.34391333        6.31496254
  501      1       6.37846233       21.99704007        2.39731050
  502      1      18.16074680       14.03740501       23.45263173
  503      1       1.60480496       19.40376239       13.63995270
  504      1      22.37043878        0.37446806       15.26436166
  505      1      17.89217171        5.39798071       14.73173683
  506      1      16.04862070       10.06291274       18.00183457
  507      1      22.04291308        6.74601612        9.73802251
  508      1      12.86902238        9.38585490        2.69430776
  509      1      13.80464477       27.58190932       13.57633600
  510      1       3.02533815       15.59294316        4.16869668
  511      1       2.50209037       16.43596894       16.14284247
  512      1       8.67009981        8.09009486       23.82555905
  513      1       7.92438953       16.84228801       26.23437058
  514      1      17.88718841       26.60202124       22.19225980
  515      1      12.69021354        4.78417081        6.09813604
  516      1      13.16194489       23.75283594        4.68015721
  517      1       7.10835137       20.18612418       22.98351742
  518      1       1.36690563       10.17165116       12.54044511
  519      1       9.98169830        5.52134564       18.06868033
  520      1      18.86294562       25.60570428       25.59830017
  521      1      23.17581649        1.98447943        9.04652973
  522      1       3.94398077        5.50786470       10.18398898
  523      1       3.12303365       15.91907485       22.68788046
  524      1       4.10442216       12.23446728       13.52593725
  525      1      16.34168104       17.26762698       24.61704244
  526      1       2.53719531       26.57425251        0.09409996
  527      1      12.90321107       25.99353097       20.60056156
  528      1      20.83345551       18.39298501       14.37271786
  529      1       3.92691879       21.82489499       27.17101031
  530      1       4.64518946        3.31138389        6.18321803
  531      1      14.80614168        8.23086398       12.21890433
  532      1       7.31283556        7.76264510       18.15181667
  533      1       6.47824085        3.32424629        7.58790688
  534      1       4.88131707        8.18848590       24.38351696
  535      1      14.26477782        3.46038753       16.82511542
  536      1       3.25621206        3.69257286        0.50790565
  537      1      23.74184949        6.78246154        3.08999102
  538      1      18.96920457       21.20555421       17.08871061
  539      1      20.48353180       23.09104398       14.60174720
  540      1      23.72553596        3.75218798       19.33571574
  541      1       1.21102245       23.83639753       20.12837808
  542      1      12.92994443       23.01387980       23.59918806
  543      1      13.41008210       23.60800380       13.42648337
  544      1       2.63264053       25.66806493       20.00059707
  545      1       3.01001987        1.57208741        6.12177892
  546      1      24.69864666       11.70473619       22.85276427
  547      1       7.97949275       18.92208574       19.89944376
  548      1      10.91168112       19.27879572        9.93659061
  549      1       4.68936174       22.19650750       24.86741178
  550      1       3.38733173       12.61199063        6.72161022
  551      1      23.84854240        2.38287740       12.64874049
  552      1      17.60253670        6.40674940        2.55589887
  553      1      18.54371395        3.14404963       17.72973906
  554      1      17.55298163        1.87403550       25.16666973
  555      1       6.78767306        3.23131754       22.24024859
  556      1      18.98337785        1.76765977       27.28681828
  557      1      17.77153002        7.95865115        0.81457902
  558      1      23.14340952       23.27600621       19.30064015
  559      1      22.76432422       25.38428532        2.73590497
  560      1       0.12574775        7.41710513       20.11822024
  561      1       7.72212327        4.75499501        1.44614635
  562      1       0.66513892       23.72908123       12.62281285
  563      1      20.28431608       16.64839368        2.13637813
  564      1       7.56100328       11.51290977       12.04976563
  565      1      26.80516926       24.26823856        6.71871107
  566      1      26.71761248       13.07985906       19.75038663
  567      1       0.82796905        2.11773429        7.13038505
  568      1      17.36085965        3.28648078        7.20416505
  569      1      27.30777896       24.95927343       16.02856471
  570      1      20.95396572       21.94538995       25.74255354
  571      1      13.38435124       15.20233640        5.96260574
  572      1      17.08811231       20.49263366       13.58493343
  573      1      25.51490966        0.29465135       17.42053513
  574      1       2.62449804       26.98747395       22.10007229
  575      1       8.91633232       18.80857269       25.50629995
  576      1       6.27005027       24.41946763        2.38837864
  577      1      13.12108891        7.47381707       17.73943952
  578      1      14.61664200       19.65205372       21.87149941
  579      1      15.70634110        8.53985360       21.97269026
  580      1      27.13236716       21.57735561        9.68174384
  581      1      21.26180264       18.72863348       23.73849827
  582      1      23.23645072       23.83380699        4.42553562
  583      1       6.68122612       21.07181915       20.76826334
  584      1      24.42989549       15.95876136       10.10961137
  585      1      20.65029759        6.89911116       24.86818769
  586      1      14.63482998        2.01738225        9.77343355
  587      1      25.86289697        5.79312433       11.16033597
  588      1      13.56116291        9.80015601       15.15219888
  589      1      17.20674978        4.78086414       22.97175062
  590      1      21.39648455       20.14884581        7.23772590
  591      1      18.68517692       16.83870806       12.06541809
  592      1       4.89692844       14.39428040       12.98686684
  593      1      11.01500405       14.74249172        3.07195985
  594      1      20.90350095       20.20623069        3.22361059
  595      1      17.77002983        0.15972534        0.74410434
  596      1      25.35845115       26.81926625        4.63729519
  597      1       0.20767314        4.96706235       17.50716407
  598      1       7.40605189        4.35311539       14.11430814
  599      1       8.90469476        4.42682682       25.07838369
  600      1       7.50367318       14.20312832        2.99137943
  601      1      11.73801011       15.90750561        7.75060998
  602      1      12.04929067        1.88551152       23.65616312
  603      1      17.56459278        4.25211169       25.20972814
  604      1      13.71484455        6.28463272        9.21759025
  605      1       3.56413386       12.22648031       26.50114127
  606      1      17.59018938        1.64110888       12.38561869
  607      1      27.20422533       17.12015856       18.87365838
  608      1      27.66164539       26.67663567       25.05332599
  609      1      16.24411524        6.83573844       15.76985444
  610      1      25.86465469       26.44750107       21.69907200
  611      1       4.49882506       12.71884397       19.41561037
  612      1      19.49775515        9.17377603       16.41292494
  613      1      25.40284978       23.30591050       20.14151236
  614      1      11.50549419       26.56868953        4.78188637
  615      1      18.00517420       10.45010205        9.98104633
  616      1       2.08542003       19.45334019       25.11673580
  617      1      13.65885777       26.15004457       10.19008413
  618      1       9.01674364       20.82558728        7.35546982
  619      1       1.96602658       19.93855987        7.17415401
  620      1      10.74985675       19.87429077       22.19174533
  621      1       6.89106158       22.81463621       16.95548288
  622      1      11.95155476        9.56731828        7.22942557
  623      1       5.80023822        0.91994424       26.67538821
  624      1      16.86068338       15.93528437       13.35877011
  625      1      15.20458549       11.41001422        7.17075412
  626      1      22.63573024        3.90378089        7.81171622
  627      1       5.82851481        4.24521010        9.61417368
  628      1      15.99614461       16.66977658       20.23887352
  629      1      10.67287354       22.03966603       23.40094761
  630      1      16.11704213       17.63828696        2.25900512
  631      1      20.62109559       13.58274537       19.10020162
  632      1      24.38271537        6.41555140        0.76253042
  633      1       0.90490407       14.66685411       16.67635451
  634      1       1.28981176        2.85039790       24.02375606
  635      1      18.26962105       22.11282655       14.99859813
  636      1      16.93798443       26.53320828       26.67593417
  637      1       5.68220594       17.65604080       25.98126438
  638      1       9.06630116        8.83609286        0.12667220
  639      1      23.54971168       22.16667375        1.09470011
  640      1      27.51527246        3.94124367       25.58188264
  641      1      11.00983241        1.20942350        8.92507825
  642      1       9.12983502       15.10134789        4.44020632
  643      1       4.63381587       20.11603419       20.14219597
  644      1       1.35350557        2.68221995       11.16207930
  645      1      14.53074809       27.11146400       21.90415266
  646      1      19.32208660       13.73400761       25.54381908
  647      1      21.33969615       15.73894071       27.46584608
  648      1      12.32142421       15.23845696       24.86576908
  649      1      21.53505158       18.27451621       16.74766444
  650      1      20.10967814        6.55392649       19.08002632
  651      1      26.90987067        9.65928809       11.70226287
  652      1       5.22733611       14.02376138        9.27499088
  653      1      25.30570291       12.03757987       18.19178088
  654      1       8.05619837       20.88844962        3.62601581
  655      1       2.02955893       12.79058237        2.27176956
  656      1      11.85508661       13.04766815        5.94960158
  657      1       6.64696167       16.05284309        1.80663412
  658      1      26.22321191       20.37052441       26.28963030
  659      1       7.89207865       22.66598443       19.06452615
  660      1      16.24657806        7.57605322       26.69089696
  661      1      19.37898547       18.44167896        3.32788625
  662      1       0.95436452       16.23933923        0.73747085
  663      1       1.16333239       25.34902870       14.20730971
  664      1      17.12912283        9.81533255        2.43186746
  665      1      15.00362728       14.55174954       17.59642358
  666      1      11.97495100       12.62589860        3.59601583
  667      1      13.07297555       19.81960860       13.00726043
  668      1      21.15603644        9.09812258       22.09935434
  669      1      20.73271077        4.97958258        8.85594871
  670      1      24.07967265        7.55549611       19.20267525
  671      1       8.48483839       11.71561181        6.84177217
  672      1       7.56658492       13.62583822       15.28579919
  673      1      16.38685766       27.30366402        7.47114503
  674      1       1.55228724       12.82351211       10.24465032
  675      1      25.68412254       11.54775062       10.92805549
  676      1       8.21909554        4.80828557        7.07396981
  677      1      20.41388340        4.74773889       17.59845645
  678      1      10.41738226       18.61545928        0.94792893
  679      1       1.95202949       22.76690809       22.07208719
  680      1       3.38700852        2.45653903       19.75760482
  681      1      12.62721070        8.67741136        5.07083462
  682      1      19.93960518        1.99707047       21.60405665
  683      1      15.30180495       23.84897688        3.77626587
  684      1      23.30040878        9.74817592       15.91046437
  685      1       2.30404503        8.82365942        3.19973471
  686      1      22.44530482       10.16902530        2.59382275
  687      1       4.23845577       12.30768831       24.29090936
  688      1      20.72618797       26.30912800       12.35842103
  689      1       5.28510130        8.60276173       18.87057192
  690      1      16.92906594       15.40785495       18.52401067
  691      1      20.94691097       10.23972322        7.23078667
  692      1      15.60977894        5.31550950       26.22106428
  693      1      18.96366269       17.77779455        5.73450295
  694      1       1.92216736       25.51628334       25.69006296
  695      1      21.35650196        6.54957668        2.17304995
  696      1      23.54601895        8.18306506       27.13567198
  697      1      19.00717263        0.69442020        5.12459219
  698      1      20.96895783       11.78048438        3.66625630
  699      1      23.50430037        8.32408164       21.63432593
  700      1      21.13768935       27.60459351        5.10940127
  701      1      25.04501632        8.74235266        8.74309211
  702      1      10.74601992       23.11190219       21.06285421
  703      1      10.51139360        6.73814303       12.08677763
  704      1      22.30784366       21.66387330       15.02332939
  705      1      19.28278065       15.84130921       22.05505203
  706      1       0.23500894        3.12300155        3.59236346
  707      1      10.79897953       26.76100489       21.40873815
  708      1      15.12483454       19.35565788       14.34655228
  709      1      16.45230293       27.60593906       20.62900574
  710      1      23.34223728        4.49982838       25.60811191
  711      1      14.49776907       17.38217179        0.43797740
  712      1       8.71586160        0.55896377       24.12632463
  713      1       5.45450648       17.70514620       14.59499138
  714      1       2.44787684        6.49276389       19.91647494
  715      1      16.30479986       20.09723802        9.81764290
  716      1      10.16953549       19.02610494        6.27258758
  717      1       1.33924981       27.52464377       13.40176495
  718      1      11.32192965       10.70997151       25.46736732
  719      1      25.41545871       19.42977818       16.06321396
  720      1       2.00196484       20.01586264       18.03479994
  721      1      19.12928226        2.64175505        3.80517959
  722      1       3.73006713       10.08978992       27.35198932
  723      1      24.02583051        4.81481133        4.30320666
  724      1      12.27516514       11.83085163       27.40851206
  725      1      10.09534230       13.38312199       20.26170147
  726      1      23.32786153        8.83942101        4.30571502
  727      1      13.69312926        1.95052070        5.98297451
  728      1      23.41647677        7.29071705        7.92758502
  729      1       0.14876678       16.04391091       24.36243344
  730      1      26.71059742        2.69331579        5.63162070
  731      1       0.43379828       21.21293060       25.14428611
  732      1      26.30218907        4.41457878       19.30361230
  733      1       7.25070169       17.93632435       17.85488476
  734      1       1.47095908       11.55279021        6.01131521
  735      1      19.22414003        2.14464669       14.21534706
  736      1       7.72933876        1.85119557       20.40726363
  737      1      20.92670303       14.32733895        6.46290944
  738      1      12.80875775       11.67722752        7.59329510
  739      1      13.78550051       18.71701218        7.79170714
  740      1      23.18702312       14.47831301        2.86282393
  741      1      19.15220582       11.48996001       15.97071937
  742      1       8.24853256       13.62011198       18.82430008
  743      1      22.94731923        6.82079234       25.25180284
  744      1       7.07294205       21.81023404       24.67168911
  745      1       3.33729479       21.33704854       10.64742112
  746      1       0.98725040        0.50767589       23.49975385
  747      1       6.05547291        8.73376478        2.51197198
  748      1       5.71457383       17.28759883       10.79403906
  749      1       9.99247053       26.22984742        6.54813645
  750      1      18.47644107       19.41950693        9.38574118
  751      1       9.22484431        1.73844210        0.07991911
  752      1      22.66795848        2.63200218       15.75732182
  753      1       3.78916926       20.28722659       23.85157746
  754      1      15.72439511        3.38877094        5.45382948
  755      1       7.11089761       18.87445209        4.40829615
  756      1      23.16454024       16.99314556       27.12005883
  757      1       3.78209971       20.22704414       12.71488092
  758      1      25.64187673        9.62578459       26.45082511
  759      1       8.79549402        8.94069696        9.40667391
  760      1       0.09847286       17.97978134       12.26919178
  761      1       3.15339323       17.19182494       13.97512507
  762      1      11.04424313       19.66777224       14.39065793
  763      1       7.43048766        1.66643591        3.66295705
  764      1       2.60617282       15.03325976        1.96230141
  765      1       3.73396065       17.75417813        4.12852492
  766      1      19.17523931       18.72006946       19.59833557
  767      1      14.60380943       18.12196446       25.88244884
  768      1      18.62138522       23.03413850       20.90964325
  769      1      17.07071656       16.49590556        6.51827255
  770      1      20.71621144        8.84042778       18.43377196
  771      1      24.40635622       13.15515660       16.26454756
  772      1       8.70758028       23.40184759       24.15696474
  773      1      14.03482937        1.92387402       18.64012538
  774      1      20.14409446        2.73446140        1.56255780
  775      1      10.45883470        7.19069070        9.75517267
  776      1      20.61929602        5.56628385       21.13521137
  777      1      15.60695886        2.88052626       12.91072096
  778      1      13.26945041       11.82390093       11.27490261
  779      1      19.43247530        9.08394110        8.75189692
  780      1       7.42110932       26.91683239       16.24658344
  781      1       4.79050752        7.67328607       10.02562061
  782      1      24.53395976       26.84056379        2.50107412
  783      1       3.64381748        5.99614712        0.49102262
  784      1       3.73339647        5.13414467       22.98439785
  785      1      13.67410651       23.58980612       17.65858381
  786      1       7.18604500        6.90801904        6.80459637
  787      1       9.65358956       13.62036999        6.21628090
  788      1       4.97520927        1.94209507       23.26161793
  789      1      27.26169291        2.16399011       20.27529118
  790      1      22.08124145       15.38232357       10.03163021
  791      1      21.50343955       13.48932322        8.66274490
  792      1       6.51231347       12.01434719       23.62969175
  793      1      23.95649969       12.19873164        6.05038289
  794      1       6.14114372       26.18279648       19.21903933
  795      1      27.48926590       25.06103910        2.43080736
  796      1      25.01373728       15.17663941       12.28600849
  797      1      25.74222650       13.65696830       21.93011807
  798      1      15.14610930       25.42558507        2.15303886
  799      1       4.51136255       14.24318126        5.42717810
  800      1      10.11369603        6.22771008       24.04294117
  801      1      10.67864516        7.51456614        4.38126625
  802      1      26.46097107        6.49737410       16.41147544
  803      1      20.11195823       20.84396593       23.73905050
  804      1       9.49945214       22.93622100       12.91264196
  805      1      21.15736969       23.61932563        5.67141859
  806      1       1.83522954        9.23053650       26.48024095
  807      1      10.74907894        3.40479450       17.70774073
  808      1      21.08052028        3.69766019       14.31297151
  809      1      21.07703583       19.91444068       26.95261439
  810      1      27.56281063        6.26617150        4.95532083
  811      1       8.53918673       17.03876430       21.51153405
  812      1      15.86578237        5.97082920        8.22383125
  813      1      16.52244326       11.82501594       26.79381012
  814      1       8.34045637       14.69833478       25.27162831
  815      1       7.62043558       24.68549284       22.52715476
  816      1      26.43567071        7.88018688       24.83361924
  817      1      14.52802396       10.96971574        0.07580709
  818      1      11.65913121        3.03431981       12.17014387
  819      1      10.86679038       12.38159045       14.46609557
  820      1       1.67600154       18.21230970       19.55709003
  821      1      13.78243191       21.06786763        7.69782836
  822      1       0.76676329       11.33280272       19.85032632
  823      1       0.73617986        3.61129770        9.00976437
  824      1      10.26635498       14.71170747        0.86942838
  825      1      27.33048341       23.86276845        8.94776115
  826      1       6.16636893        5.21573754       15.95149945
  827      1       0.87238869        0.90767506        2.97566912
  828      1       5.90819278        5.62878382       22.08397043
  829      1       8.82038009        9.60651570       11.75925724
  830      1      26.64625347       10.91053127        3.45698856
  831      1      19.58878903       11.24832301        5.50376083
  832      1       2.19785559        5.38563072        8.53048594
  833      1      15.48108538        0.04455518       15.26605476
  834      1       4.15563059        0.92916441       21.36093765
  835      1      25.87773606       12.25493069        1.69346492
  836      1       8.36660356       24.62893173        5.71759147
  837      1       2.67364852        4.44578957       21.00445613
  838      1       8.05221975       24.59153802       15.91119307
  839      1      22.03868259       26.72862203       19.77375126
  840      1      22.26889153       23.21197341       21.48742187
  841      1      10.33152379       15.37871611       21.61182000
  842      1       5.24614335       18.82245655        0.40664989
  843      1      12.28457761       10.18705945       20.47197286
  844      1      25.00325493       15.63433336       26.60171903
  845      1      13.32512028       24.82104193       24.94810427
  846      1       2.20670411        0.49801275       11.20321138
  847      1      24.34861934       15.50767404       22.74730069
  848      1       5.88836527       23.19613987       12.80581884
  849      1      19.14573047        7.94860402       12.47371806
  850      1      17.34214063       21.28515905        1.91618548
  851      1      15.65548884        2.43297132       15.22683928
  852      1      16.71760673       10.69247788       24.65188874
  853      1      15.14449781       13.32491190        5.66056571
  854      1      11.67976533        2.34775255       19.62208610
  855      1      11.47390769       22.56579198       17.29390155
  856      1       1.90907294        8.46762627       14.13644861
  857      1      23.23948476        0.82658138       22.83704735
  858      1       6.87319372       21.04513126       15.42119483
  859      1       9.01687749        4.33618312        5.00096009
  860      1      10.48012854       24.36853818       15.98232061
  861      1       3.33568414        5.23222673        6.36201123
  862      1      14.27418746        1.49954476       23.20953918
  863      1      20.22362676       10.24264155       20.28861383
  864      1      18.54730672       12.38849487       13.78434240
  865      1      27.23712871       26.33959596       17.89214937
  866      1       6.79788003        8.18219018        0.32272824
  867      1      11.04483569        5.27950001        4.51108538
  868      1      22.79623715        0.40040165       27.17808092
  869      1      23.62922899       17.10158017       17.25884364
  870      1      20.99589730        4.73416185        0.60236535
  871      1       5.24940233        8.59599727       12.11594338
  872      1      25.03336930       10.06433093       21.28663717
  873      1      13.94415168       16.41860036       16.68146542
  874      1       3.40363757       17.02779151       10.19739907
  875      1       4.41776609       15.24219027       16.73521909
  876      1      21.84688839       13.77707170        0.98998644
  877      1       2.96436816        0.83422509       14.81782159
  878      1       3.13624216        6.59303070        2.80821288
  879      1      26.08011165       27.61226797        9.28951672
  880      1       6.78497919       11.31506111       15.97080349
  881      1      15.05838712       18.45258192        4.22910862
  882      1      22.96406801        9.28428372       18.16870626
  883      1      13.78295003        5.85887880        1.96577820
  884      1       5.25174272       26.27558728       10.84487117
  885      1       2.74721795        7.04831260       24.06675208
  886      1       0.34690970       27.62864283        7.89312924
  887      1       1.90752446       24.52197407        9.17147511
  888      1      18.80936015       17.18012230        9.75104710
  889      1      22.47419825       16.65662086        3.02614597
  890      1       1.52771589       15.51653718       26.28076640
  891      1      12.29828920       16.63417949       21.01833186
  892      1      13.63135432       21.85397361       11.82804175
  893      1      25.95769612       25.80095524        0.58703605
  894      1      12.19384669       27.19717967       27.41715104
  895      1       2.84685331       13.81493288        8.64622206
  896      1      19.46597947       26.24931937       14.51752715
  897      1       2.96398829        8.82988435        9.06308643
  898      1      22.84823911        4.44388748       21.43670589
  899      1      25.17163281       26.56045164       13.36467758
  900      1      17.53538528        7.24843552       22.93844543
  901      1      19.23473625       22.81664791       11.08750672
  902      1      17.10686693       25.94766088       14.48945424
  903      1      26.69237608        6.00909210        0.92303730
  904      1      17.78194098       14.36594963       14.78638037
  905      1      14.23792536        8.77423465       27.03638105
  906      1      17.14333926       26.92174461       18.38453280
  907      1      23.95984087       27.61996225       20.77890118
  908      1       0.62350044        2.79887495       16.74296014
  909      1      11.32457857       26.48006620       16.65605239
  910      1       9.62563185       26.09795823        2.11622502
  911      1      26.76230565        7.82221978       10.14716787
  912      1       6.02113447        2.47102889       10.94403344
  913      1      20.40134757        7.82171906       14.65475236
  914      1      22.12054557       26.52289331       23.56654382
  915      1       6.70547627       11.29169353        5.37094933
  916      1      24.56652950       22.20353621        3.26210084
  917      1      22.24463497       20.16686107        1.29211005
  918      1      26.52186541       10.08179514       17.36430546
  919      1       5.36489573        7.34326769       15.49480404
  920      1      11.31221331       12.10668098       23.54610662
  921      1       8.93124722       20.86442785       13.97099981
  922      1      13.57200406        5.24233907       22.62244747
  923      1      17.52049884        8.52315449       24.95625338
  924      1      17.28604954       24.52177067        5.10622478
  925      1      26.11441415       14.99457304        8.66699743
  926      1       5.73797483       18.79992022       12.55966546
  927      1      11.66550124       27.63841143       14.48823898
  928      1      16.43911018       12.02694223        9.09903681
  929      1      13.65692874        1.29175882       26.75185078
  930      1      17.76521163       19.29569570       17.70548147
  931      1      19.61732149        1.10615234        9.31257475
  932      1       3.52470726       13.09298018       17.26489818
  933      1      20.00478384        4.42688382        5.04455357
  934      1       2.20224467       26.88860593        9.10122091
  935      1      21.00032371       15.72625291       20.18003110
  936      1      15.42573099        7.34231923        3.10273234
  937      1      14.87667102       10.62781781        2.35909780
  938      1      22.40623071       11.95663684       12.95898574
  939      1      14.73082547       11.77648584       14.47689527
  940      1       8.14107124       22.21175630        5.59855367
  941      1      15.79972461       17.21580186       15.20311173
  942      1       5.70674627       21.98485462        5.78178414
  943      1      12.63096430        7.79069377       19.98370298
  944      1      12.21521720        2.16478578        2.36468110
  945      1      26.08824103        4.23677289        9.45363927
  946      1      15.44529254        0.56895607       25.31108230
  947      1      12.48439500        8.30093430        9.20439532
  948      1      15.57149988       22.31785796       18.77172190
  949      1      21.41388203        3.30382885       24.93279274
  950      1      25.26651498       20.71354283        8.53559398
  951      1      10.40424670       21.55848464        9.27761575
  952      1       8.69255008        9.49291813       21.82520057
  953      1      17.99573665        7.48854798        7.47521480
  954      1       9.96226072        2.73505020       10.35475120
  955      1      23.68004061        8.02709935       12.75736164
  956      1      21.04173361       15.17065671       25.18810397
  957      1      13.48711798       21.72000834       27.03354091
  958      1      13.63022728       24.43796362        8.61408543
  959      1      15.17550285       15.98185389        9.85153804
  960      1       9.62331917       13.49701585        9.83585659
  961      1      21.04495771       17.11740626        8.90341148
  962      1      26.91455156        2.37011292       12.22566186
  963      1       6.08596104       27.11526946        6.83739692
  964      1       8.65166236       14.67195101       11.68873989
  965      1       8.02263469       20.88708946       26.58074982
  966      1       7.38740838        8.90790769       15.46250413
  967      1      18.34253994       11.28141261        0.76138405
  968      1       4.53546931        7.48779248       20.75071531
  969      1      11.76972353       13.20067671       18.55968622
  970      1      26.36013261       21.25666309       19.55083941
  971      1       0.33742158        8.05599942        6.48649704
  972      1      18.32901053       11.67986041       23.11935336
  973      1       4.62045853       22.94154557       17.63974945
  974      1      11.24119387       10.03840629       14.68589126
  975      1      25.14194361        1.53369571       24.03056990
  976      1      20.85439978       23.91923777       12.40977835
  977      1      25.91014554       12.29878059       14.72107520
  978      1      17.17224148       27.23961262       11.17663973
  979      1       0.97939507        0.70345943        0.59191348
  980      1      14.17690984       11.60259248       20.74453576
  981      1      23.19459879       25.89778406        7.66095101
  982      1      15.17892363        3.47426766       22.27736299
  983      1      24.23506594       13.45948171       25.83892143
  984      1      12.87031935       17.42473382       18.71269065
  985      1      25.82043093        4.84768472        5.76628684
  986      1      14.85515235        5.77183012       17.38577464
  987      1      11.54150458       19.87748357        4.59027466
  988      1       3.56864575        3.26513384        2.90537270
  989      1       8.61420676       17.34735035        5.47039569
  990      1      25.79051818       13.59539821        6.52304139
  991      1       3.97529196       23.67349652       23.14664753
  992      1      17.70882673       16.95466299       16.81472035
  993      1      13.27034091       25.53108834        6.29700505
  994      1      22.34316091       13.32635501        4.75855226
  995      1      24.35822917       18.61002103       13.92073541
  996      1      19.25740302       25.27698959       20.92491194
  997      1      12.24680692        5.31489957       12.55929272
  998      1      14.28159378        2.21692997        1.09400299
  999      1      18.03106172        9.66360820        4.72699072
