run_id:  1010  total_energy:   -3026.727290586559

  1000 atoms
  1 atom types
  0.0   27.664  xlo xhi
  0.0   27.664  ylo yhi
  0.0   27.664  zlo zhi

 Atoms

    1      1       0.00796256       18.76053239        6.77215199
    2      1      14.63635714       18.55921021       19.59466757
    3      1      19.84870236       15.23999087       15.87011410
    4      1      17.39767701        8.34082528       17.15148330
    5      1      12.82121454       12.81043393       13.22323093
    6      1       8.13633618       17.31514975        0.73166827
    7      1      13.84107952       23.92451543       26.99463804
    8      1      24.92733323       22.94647770       12.36397604
    9      1       0.65063827       26.02652542        6.10157531
   10      1      26.74390204       27.53219904       27.09087878
   11      1      26.24282147       24.03110695       26.52995460
   12      1      24.73218076       12.81908926       12.65450949
   13      1      11.75231188       16.37954958       11.38805697
   14      1       8.77491221        2.81850443       23.39976914
   15      1      22.30386064       12.21998477       22.82428842
   16      1      16.00596252       21.58224977        7.98666778
   17      1      22.71311874       17.48952227        5.25619325
   18      1       5.66222178        9.42740754       26.31891733
   19      1      25.01869139       10.28950589        5.07677525
   20      1       8.78405784       13.12283665        1.23393069
   21      1      25.62808215       18.10625573        1.78910524
   22      1       2.97693916       23.66166522        7.19500802
   23      1       4.99327378        2.31859022       17.98388275
   24      1      10.39394829       14.37665426       23.86449439
   25      1       0.36265930       14.92744074       19.05405314
   26      1      27.42190233        9.48483306       21.20026428
   27      1      12.88447146       18.14911635        3.63900008
   28      1      22.33646670       19.11252536        9.32339194
   29      1      17.73395938        3.20981259       15.55770727
   30      1      27.29095023       22.39058303        5.59943456
   31      1       4.81470874       21.76876043       14.25562061
   32      1      16.68218739       18.81199397       22.83335330
   33      1      16.94857175        2.92427661        3.36014470
   34      1       9.67401685       16.72672036       12.32809944
   35      1       8.23137811        6.08594555       12.53931536
   36      1      15.72596381       27.17761484        3.58883115
   37      1      10.63774191        6.58418448       20.11701531
   38      1       7.06469991       26.91401588       23.03167176
   39      1      21.88835562        2.73822505       18.07978629
   40      1      10.72542540        0.52296181        1.30117791
   41      1      10.81029333        7.15408131       27.64914928
   42      1      10.63275948       25.35922848        8.65863725
   43      1       4.51322681        0.67522984       11.50481110
   44      1       8.89935893       18.78779583       23.09858619
   45      1       1.35789448       13.16592366       26.41380020
   46      1      23.72449176       10.99887658       19.49261619
   47      1      14.36556322        7.66639472       14.47102953
   48      1       6.62452436        5.00520516       25.71007591
   49      1      14.97994198       20.33363313       25.91351789
   50      1       9.77645284        4.83936459        8.96900545
   51      1       1.38011363       18.51498096        1.06627245
   52      1       7.37372676        2.40411138        1.29102260
   53      1      24.49321194       19.94040310       22.67180248
   54      1       0.33081770       21.48119670       13.32977867
   55      1       6.87490161       21.94572705       11.07645327
   56      1       4.65741862       24.47361947       19.60030729
   57      1       1.84716879       18.83604092        3.35954436
   58      1       5.77124577       11.74554236        9.29027763
   59      1      27.19375970       11.73117436        7.36296709
   60      1      23.34598050        4.40828160        0.21356192
   61      1       2.40193413        3.06572113       15.26355127
   62      1      18.78464890        0.71332104       23.30760361
   63      1       8.13204435       11.67500374        9.23312650
   64      1       5.43216096       27.57380771       17.41386495
   65      1      20.42096832       21.76612797       21.54912148
   66      1       7.08651161        5.13347633        3.61622214
   67      1      15.95763326       13.20670375       15.93487240
   68      1      24.45020977        7.21930840       23.54931588
   69      1       0.19588966       12.28625177       24.60475156
   70      1       7.17725709        2.98421879       18.45592432
   71      1      10.39148630       17.37432328       14.60440159
   72      1      13.74064925        9.71017779       17.34533190
   73      1      13.23844698       21.01951595        1.54498804
   74      1      24.84239081        3.52245114       14.79761971
   75      1      26.36128133        1.85151004       15.78459619
   76      1       2.67205700       10.67464495       10.64012654
   77      1       2.64499958       23.59386844       11.15602526
   78      1       7.69436495       20.00916569       12.17112046
   79      1       3.84318305       16.83336882        7.80487056
   80      1      23.74854163       26.57065068       16.59501396
   81      1       6.99906741        7.54262926        9.02927636
   82      1      18.81367059        3.99023374       21.35705228
   83      1      11.04856829       18.66458336       26.16931031
   84      1      14.75087275       27.40640818        5.80732734
   85      1       0.70524765       21.98037423       18.56852229
   86      1       5.57725682       18.01893993        2.85555788
   87      1      26.82413925       25.13906539       19.91411199
   88      1       9.56363370       14.99095289        8.22119362
   89      1      25.28941576        3.78331615       24.48513973
   90      1      24.22023959        5.80531021       15.86547771
   91      1      11.77518180        4.50063915        2.41958618
   92      1       0.56138534       12.58268643       15.64417247
   93      1      20.01647316        0.35765069       15.59105376
   94      1      16.11262633       10.23845741       20.33450871
   95      1      22.84083266       14.21864272       24.04907753
   96      1      17.72439370       20.80745539       23.70697209
   97      1      10.11080934       19.77534430       19.77644544
   98      1      12.97934461        9.46555862       11.21455467
   99      1      25.52187392       10.07404908       15.26998969
  100      1      27.54243670        6.23252060       26.30083251
  101      1      22.77374470       11.60416791        8.03302633
  102      1      15.02105626       26.01352382       23.99512389
  103      1       8.99684464       14.68658076       16.84747963
  104      1      18.90051436       22.89394713        5.06140522
  105      1      17.87687072       26.49904209        4.10678881
  106      1       2.91777004       25.47229143        5.77840175
  107      1       9.68938434       10.00713230       18.13665042
  108      1      11.20333010        5.34052449       22.12524602
  109      1      23.76334476        1.41392496        2.61117125
  110      1      16.02933922       24.48900935       27.64840297
  111      1      13.86025770       13.60409768       19.46977832
  112      1       1.77905260       15.68910244        7.49123326
  113      1      11.09826741        6.91388993       16.51593151
  114      1      12.87223391        7.74080105        0.96044955
  115      1      23.80850412       24.45434396        9.46319184
  116      1      17.20974472       14.58648167        5.22164740
  117      1      19.85056154        4.86921004       25.93342988
  118      1       8.68045881        2.38238348       14.72901261
  119      1      18.94382331       18.94625653       13.05488578
  120      1       8.90532183        2.12191927       17.06614918
  121      1      12.55589407        5.88154937       14.81105967
  122      1      18.17591743       15.14408036       27.06512174
  123      1      26.95280714       14.24592772        4.59981442
  124      1       5.81822699       19.24032497       16.47763730
  125      1      14.47937998        6.77953934       21.03581597
  126      1       2.63270620       12.34855388       20.88572847
  127      1      19.64873501        6.29570650        3.73578337
  128      1      11.12128111       13.91739423       16.26073510
  129      1      20.92628958       16.68852559        6.59158710
  130      1      14.91599460       22.20182603       20.97305380
  131      1       5.08775853       11.01612986        7.06911347
  132      1      14.91711599       17.21567142        6.21568261
  133      1      25.15723829       25.21622930       15.24151668
  134      1      16.85455705       22.73300782       22.47298767
  135      1       5.21457879       23.22561368        7.68542305
  136      1       6.07512475       20.99336901        0.35046169
  137      1       9.50668966        2.01606740        4.96757780
  138      1       3.00853900       19.46254293       27.31532414
  139      1       6.28348348       15.01425399       11.21034258
  140      1      13.04506365       15.79770538        3.86179337
  141      1       9.61844055       24.43055861       26.14137845
  142      1      26.86537278        0.67584846       13.77413884
  143      1       9.17662030        9.71135972       25.60827596
  144      1       3.90589838        9.02074165        6.86720718
  145      1      17.18114076       23.47207840       10.81359469
  146      1      21.63559676        8.59547691        1.01719689
  147      1       1.82138494       21.88411691        5.96515697
  148      1      11.45046311       26.91039755       10.27268532
  149      1      13.75523022        1.83229469       11.98180771
  150      1       7.35933856        1.18716844        7.91509234
  151      1       0.40146328       12.14883030        0.60459910
  152      1       0.10578854        9.14814277        2.39998761
  153      1      15.43603054       20.61609049        4.74497304
  154      1       7.79846148       25.62269261        3.66211659
  155      1      14.12710645       14.34343729       23.35753660
  156      1      24.70259742       17.67360464       19.20534628
  157      1       2.07440682       24.89455284        1.70919582
  158      1       8.73489343        8.30971575        5.42022972
  159      1       1.27293725       14.16252564       12.24580105
  160      1       2.12834801        6.91036100       26.38177042
  161      1       4.25754851       20.59994584       17.91418320
  162      1       5.50888530       16.35138583       18.45810368
  163      1       5.07529596        1.14741960       13.78932479
  164      1      27.45855780        7.07714291       14.33968559
  165      1      13.35319583       14.85834054        8.56403616
  166      1      19.41588791       23.57279032       26.71861880
  167      1       5.83497848       15.25550054       14.89815187
  168      1      11.02103556       18.61630493       17.91546153
  169      1      14.67586780       18.27415331        9.86448100
  170      1      26.61624058        7.24177360        3.01098772
  171      1      11.50685210       24.48196371        2.75868009
  172      1      20.64509935       15.34120550       12.08419261
  173      1       7.36056423       17.96725528        9.30012647
  174      1       1.73022075       14.48171747       21.27675127
  175      1      16.35173545        9.18122270        6.29139062
  176      1       2.22960425       21.13423815        3.70658699
  177      1      18.12346802       13.58206344        8.56058583
  178      1      25.70909421       23.31684720       22.57777034
  179      1      11.51652614       18.22797956        8.06504428
  180      1      25.52524824       18.08034851        4.07419152
  181      1       8.27480957       25.22178119       19.01188300
  182      1      22.53252084       21.03825543       18.69985901
  183      1      15.35622538       21.72926259        2.73730986
  184      1      21.11295630       26.85933158        2.96580164
  185      1      24.97565532        1.47670564       19.39444175
  186      1      21.93045075        8.32773405        6.15754605
  187      1       0.82806836       23.34796972       26.24717511
  188      1      12.57052963       18.39771824       22.51949074
  189      1      17.44205851       22.57152414       27.40826309
  190      1      14.91818159        5.54654843        6.07255711
  191      1      14.27348135       25.55999653       12.35441139
  192      1      10.81076896        3.07411805       22.00898897
  193      1      25.73716944       25.25457730       24.08518400
  194      1      21.78657292        0.96482689        1.62556579
  195      1      10.26739891        3.54158177       26.73127116
  196      1      18.03215401       24.71320591       17.48107646
  197      1      20.90180840       20.77614454       17.03561560
  198      1      16.55933123       25.35233927       12.24549418
  199      1       3.40937315       26.91256514       16.45025591
  200      1       1.23890625       18.07793175       10.19134385
  201      1       3.92488887       15.93217760       26.18447962
  202      1      16.02887797        5.77888888       19.39356601
  203      1      22.03818382       20.54155874       11.24280121
  204      1       3.75495891       24.85797821        3.47411832
  205      1      18.28136066        5.71114996       12.34182705
  206      1       9.14940641       10.68861247        1.83825807
  207      1      26.80531155        5.51199651       21.30775121
  208      1      26.27322463        7.92502978       18.31827673
  209      1      26.87647339        4.87545312       13.20219614
  210      1      12.95377009        8.97534224       25.09290360
  211      1       4.70980454        9.29572578       22.36511803
  212      1      24.77928636       22.19951622       26.76057028
  213      1       0.14516680       17.85962562        4.70341102
  214      1      23.17403922       16.70770828       20.93640723
  215      1      13.18383000       25.91957798       18.13681615
  216      1      14.14799944       15.25857508       21.15556908
  217      1      26.24909825       15.97722701        0.99491479
  218      1       4.87948107        3.19437382       26.42309377
  219      1       3.78279645       18.63185075        6.38000721
  220      1      20.49428259       10.70584510       23.77198123
  221      1       9.91117088       22.27735174       27.25468437
  222      1      11.37689591       25.98213009       25.48538092
  223      1       1.73814615       12.29971519       13.60891054
  224      1       9.78623793        8.86214911       16.10502650
  225      1      17.29985531        3.77695268       19.56660076
  226      1      16.54848453       11.41607977       12.90304425
  227      1      25.54546198       14.39619497        2.60825100
  228      1       6.15758018        5.99205396        0.12454255
  229      1      13.66793077       12.04476730       22.97211739
  230      1      26.68476923       20.20282259       21.57090829
  231      1       7.62405089        5.61965934       10.25640025
  232      1      22.61248564       19.77483086       13.45704641
  233      1       4.42169059       12.19042889        2.34581826
  234      1       1.10487614       19.03835612       21.61352834
  235      1      21.39109567       16.12766870       14.12069448
  236      1       1.80478105       27.06647268       18.24203299
  237      1      17.04745822       24.91209212       23.60698375
  238      1      20.04176025       24.00815392        1.30348933
  239      1      14.20581073        6.10024586       11.43480355
  240      1      22.29885308       25.23603995       17.97429232
  241      1      14.68823990        9.95430508       23.66803182
  242      1      19.55424726        7.83338860        5.40871413
  243      1       5.35483544       18.72360978       23.65803425
  244      1      24.84403546        2.73169487        0.90862943
  245      1      12.16572003       12.82923027        9.40645344
  246      1       6.87888682       24.99041042        7.53357961
  247      1      19.00498304        5.06745686        7.12923896
  248      1      12.17621741        3.65527550       15.83021744
  249      1      22.54102838        9.81422014       11.62688759
  250      1       1.40828615       18.84563484       16.10596526
  251      1      16.13792945       14.14008577       26.58077660
  252      1       3.00447025        1.15652192        3.75166538
  253      1       5.18595390       13.13379453        0.27117181
  254      1       5.73114865       23.47352374       21.52903408
  255      1      11.84137432        6.83902106       25.46722580
  256      1       0.97370552       15.75216371        5.23773108
  257      1      24.27180638        0.30313510        7.86844931
  258      1      24.65357714        5.18327194        7.76080253
  259      1      15.47831164       27.57855608        9.57549252
  260      1      23.37426775       18.16586151        1.43934143
  261      1      21.13241501       19.95025767       20.30527492
  262      1      25.53105956       16.71189877       24.53446753
  263      1      24.89349740        1.25323645       26.64919507
  264      1      19.96064619       16.88386707       24.07005590
  265      1      12.72215137       18.59912877        1.42273149
  266      1      17.47965778       21.18866042        6.12001431
  267      1       7.57588371       26.67416908       10.77486269
  268      1       9.35407965       24.96145106       21.06792685
  269      1       6.92174950       19.95842675        8.24300129
  270      1       5.42844215       21.54003006        9.34850556
  271      1      16.37048166        3.66886992        9.43728012
  272      1       4.91357657       10.92548288       11.64945235
  273      1      21.78763527       12.00661358       20.41045071
  274      1      16.05169417       21.50768500       11.59786290
  275      1       0.02564765        9.83573054        0.12680749
  276      1      22.25995816        3.78555581        5.48184128
  277      1      17.81857224        7.24877347       19.15485445
  278      1       4.84654150       17.15100833       21.93848080
  279      1       8.91207808       22.95761066       10.56010378
  280      1      20.34421817       24.70258451       16.49779712
  281      1       9.65087034        9.64961012        7.10351871
  282      1      26.76913297        0.83784335       22.32856250
  283      1       2.01367586        4.98655726        4.25806465
  284      1      20.90545781        1.12696938       26.03504769
  285      1       2.61662361        5.85362215       17.66034053
  286      1      22.79912214        7.69145116       14.83355808
  287      1      15.50806602       12.60675146       11.14395622
  288      1       4.36558564       14.69674026       24.24462700
  289      1       1.45577257       10.30283206       24.31629507
  290      1      21.41296595       25.37295655       21.61827506
  291      1      10.39540463       11.22978077       21.55965525
  292      1       4.10309173        4.10527297       16.62696617
  293      1       2.84454889       20.64901927       21.70000323
  294      1      23.42948642       25.69592791       27.21642279
  295      1      20.69524187        1.01740863       19.43820941
  296      1       0.10077072       14.08338489       23.01189621
  297      1      17.85340640       17.53386795       21.24060045
  298      1      14.38439843       15.02278613        0.24728138
  299      1       0.55887657        8.44717262       23.32830224
  300      1       4.78470935       27.07540675        0.58326086
  301      1      19.35371166       25.32367922        8.55176645
  302      1      14.71174065       14.64524758        2.50424450
  303      1       7.27225945       11.10454929       25.66965019
  304      1      17.25103131        4.35761301        1.57421216
  305      1      19.97074201        7.15369577       22.61221692
  306      1      16.71725843       23.92986223       15.57359056
  307      1       4.10406118        9.94115976        2.04269283
  308      1       1.56035852       20.31192269        9.46796665
  309      1       9.47719708        0.84364699        7.06118643
  310      1      24.91613069        1.08637958        5.79793068
  311      1      20.13845335       16.94472932       18.11092635
  312      1       0.96122393        2.99647577       27.61872351
  313      1       3.11809259       10.99207755       22.78944998
  314      1      23.76576381       22.18461096       22.99778034
  315      1       1.38562542        1.66571658       18.76735667
  316      1      14.90157602       27.46734479       17.54831791
  317      1      13.24631574       21.42549704        5.45962761
  318      1      25.71086950       18.98269391       11.90437469
  319      1      24.64222366       18.46327704        9.77219645
  320      1       4.29213946       24.78628921       12.36195136
  321      1       7.77312694       24.34895907       13.63936428
  322      1      12.58769629       17.54524479       24.77396405
  323      1       2.05297972        9.34792561        5.52520850
  324      1      20.31022144       13.01074158       12.28368357
  325      1       9.91599565        0.71448004       19.94772509
  326      1      23.78241638       22.60153551        8.04619642
  327      1       8.36157563       26.47500158       12.86571428
  328      1      23.45190496        5.98379122       11.51901239
  329      1      14.83489785        7.70973168        5.21227126
  330      1      21.38399603       22.43575360        7.95083940
  331      1      23.77613776       16.26973875       13.96436231
  332      1       3.80417602        5.19467650       12.55341626
  333      1      22.56073849       18.78877952       21.81319875
  334      1       0.68044784        3.78776754       21.90781436
  335      1      11.01907555        2.23168063       14.26214111
  336      1      26.34808056       21.20716537       11.75562606
  337      1      19.70906679       20.60057529       11.47182488
  338      1      24.85043396        5.17361729       22.61412322
  339      1      19.88094549        4.38638876       11.01823404
  340      1      19.04566257       19.71301939        7.17735328
  341      1       8.75342977       13.06032681       13.40982912
  342      1      11.46246556       11.06302077        1.91133986
  343      1      18.72781552       19.16481191       27.06240500
  344      1      26.86823640       15.89625661       15.43346881
  345      1       3.53508609       25.86078801       23.97442740
  346      1      10.08505142       21.98744330       19.15719599
  347      1      24.10397650       10.92556657        0.85438836
  348      1      13.47998900        5.11609737       25.07579723
  349      1      25.89009144        8.61912503       13.47927630
  350      1      26.25415848        9.58369106        6.92830566
  351      1      18.21587437        1.12681271        7.27606738
  352      1      26.81203922       22.92862169        3.32722941
  353      1       8.10913321        0.27671499       26.40348783
  354      1      12.94514458        2.31239046        8.24434177
  355      1      19.76674642        8.97186280       25.45529909
  356      1      16.14345612       14.87954146       24.32986810
  357      1      19.76012774       12.46023387       10.03126627
  358      1      18.18805695       13.26771060       19.16529897
  359      1      22.62260608       18.81577936       25.63536597
  360      1      25.91926228       25.32750273        9.90450796
  361      1      15.12715841        4.37964466        0.66278177
  362      1      12.37277726        3.02746495       25.69266325
  363      1      10.19066665       20.52191912        2.95682288
  364      1      26.24845205       24.83690481       12.04945808
  365      1      16.17315265        1.14241388        2.09118032
  366      1      19.01135798        0.73617092       17.79148331
  367      1       6.62465349        6.75766008       24.02898224
  368      1       6.62865131       15.70839678       21.69089915
  369      1       8.39450954       25.85684016       27.56493729
  370      1      15.44746423       20.07479090       18.04688393
  371      1      10.84850316       27.47368028       23.69732569
  372      1      26.94338769        3.73153916        1.46464855
  373      1      23.16630630        5.73991683       17.99870658
  374      1      14.41945678       12.57467556        3.47083315
  375      1      16.85864223       15.46804549        2.99515729
  376      1       6.21153431       14.49427225       19.71447666
  377      1      26.11331235       20.50938896        6.43972060
  378      1       9.04876636        8.35660069       19.79038724
  379      1       3.96406456        7.34597153       13.58349547
  380      1      27.05127200       12.79808211        9.50634365
  381      1      24.64777800       19.94460910       18.28665164
  382      1      12.73303267       22.31170262        9.43986180
  383      1      13.00003282       23.66695620       21.31507499
  384      1      23.93345397       10.48971820        9.80392123
  385      1      18.11795441       11.36439177       20.76398646
  386      1      14.23986540       20.61083988       16.08556159
  387      1       5.80266189       19.71088838        6.23971577
  388      1      27.05094086       19.77020193        0.82687905
  389      1       4.12465700       17.76584124       19.84664874
  390      1       1.06469138       10.93816285       17.34385861
  391      1      11.10765836       22.26830381        1.74414712
  392      1       1.57380796       17.63769140       23.49232841
  393      1       3.75459317       27.27706821        7.11810598
  394      1      26.72416849       21.59360201       15.25870037
  395      1       7.38236986        0.44396616       14.27173138
  396      1       4.54536757       27.18484880        3.03512530
  397      1       5.52085882        3.51813742       13.08928246
  398      1       5.62038512       15.33746319        7.32812316
  399      1       6.31532390        0.04318349       20.91310919
  400      1      27.04988267       17.91998568       16.55948679
  401      1       8.98095254       18.50312848       10.92069092
  402      1       7.90208563        1.30748790       10.21922632
  403      1       1.81439251        4.18151735       13.19943254
  404      1       5.68348392        3.32546365        4.05406787
  405      1       7.41922434        8.25635473       13.01556452
  406      1       1.06372277        7.47663110        8.67007198
  407      1       2.71494105        9.66651601       16.10946600
  408      1      25.30533640        2.24069021       10.42225710
  409      1      19.31408575       26.81789364       10.37907031
  410      1      18.40100951        2.71136652       10.47763790
  411      1       7.57570234        5.38256258       17.89942723
  412      1      18.34228519       17.19908873       25.81936922
  413      1      11.85702563       10.87378090       18.32923637
  414      1       6.16209201       25.18051952        0.23016835
  415      1      14.47974571       21.24310166       23.85560937
  416      1       3.07813380       15.61669876       12.24519301
  417      1      12.37855367       14.18740621       27.07717132
  418      1      21.65667253        1.56584299       10.67592983
  419      1      22.94818938        0.00556579       12.91782599
  420      1      10.70298991       26.43708829       12.67844577
  421      1       6.61007734       10.54596370       21.77660134
  422      1       0.61969699       12.42533972        4.11526291
  423      1       7.76428631        9.81327828        3.78276511
  424      1      19.62340294       23.30573692        9.81121068
  425      1      20.72256878        8.44960457       10.68354401
  426      1      22.38072733       24.12167214        1.01763586
  427      1      17.24760973       20.73534009       26.01169753
  428      1      12.74555249       18.51260708       11.20212435
  429      1       3.42912727       25.09674600       14.76154340
  430      1       5.90229020       13.02264868        4.02397568
  431      1       7.44012940       13.09695620       26.97486010
  432      1      24.90248650       22.92209641       14.62594410
  433      1      22.84653335       22.88933477       11.21059635
  434      1       3.56508145        3.31714407       24.40512324
  435      1       0.70670778       22.86400126       16.42938312
  436      1      21.05965028       25.76414537        6.86612250
  437      1       8.42864828       24.97886949        9.40025529
  438      1      15.95952921       23.77368171        8.75408840
  439      1      12.96408845       25.35723304        1.11141653
  440      1      20.71721061       13.11564748       16.66551849
  441      1       3.83997564        7.93000085       17.15419988
  442      1      17.25858960       25.16695671        7.44973435
  443      1      17.31181306       15.80287015        8.72416404
  444      1      10.10786025        5.07951868        0.83809895
  445      1      15.23540690       14.91600255       11.83157597
  446      1      11.02319131        9.08147536       12.53813470
  447      1       4.36114230       22.30424604        3.81787646
  448      1       4.94785616        7.04345891        6.01974800
  449      1      24.87352884       19.01057648       24.80031271
  450      1       6.46199555       27.36535774        4.38429951
  451      1       9.41545454       27.39271288       17.73842543
  452      1      27.55164658       26.71227538        4.05220997
  453      1      19.64488776        9.31093277        0.05490945
  454      1       1.94043446       22.87625574        0.54943580
  455      1       5.93313638       10.84027285       19.50777603
  456      1       0.55332785       21.63646431        2.01458521
  457      1      17.30509527       11.95274113       17.31710135
  458      1      11.19366267       24.30633038       13.69861865
  459      1       4.56219971       15.23790644        0.69387527
  460      1      22.03141112        3.96371427       12.16930056
  461      1      20.14409964        5.55226462       15.37488987
  462      1      19.82127234       12.86575489        1.86674696
  463      1       4.37797505       11.45011285       15.75366843
  464      1       5.28242340       27.52390922       24.49091492
  465      1      13.08513943       15.10770806       12.92625307
  466      1      23.11481891       22.77456206       25.13882644
  467      1      17.10074288        9.28851080       11.95060324
  468      1      24.59160806       20.21896859        4.69640338
  469      1      21.85153833        2.64072505       22.69278620
  470      1       7.75327162       16.40877746        7.58992630
  471      1       5.35833366        6.88037137        3.70274700
  472      1      25.62691501       11.66817836       25.05720085
  473      1      22.85787881        1.62699631        4.86515951
  474      1      22.50326996       11.99312512       15.41580880
  475      1      27.54178574       21.93194075       22.95973312
  476      1      11.41056802       21.07634614       25.92145178
  477      1      15.72356466        2.24893634       20.24553102
  478      1       7.73567241       11.43198509       18.13940819
  479      1      22.80588851       12.31581878       27.22358581
  480      1      11.83728837        1.29288700        4.51760939
  481      1      12.21089374        4.60400614        8.34439302
  482      1      22.31185676       19.81612191        5.20755152
  483      1      14.48372707       23.03022044       15.50353144
  484      1       6.71345161       14.45418039       23.63138369
  485      1      17.89188515       19.14915055        1.64545450
  486      1      18.71654347       14.96827348        1.71678546
  487      1      24.63033857       25.00352023        6.03538753
  488      1      19.41836728       22.25226669        2.88121388
  489      1      16.11529155        4.84230524       11.65585625
  490      1       9.26775363       17.13648548       16.81462320
  491      1      12.18049828       15.77194303       15.11504222
  492      1      11.88279185       20.34263557       16.44701892
  493      1      27.22233000       15.75304357       13.01905555
  494      1       3.20414707       23.00619609       15.72739116
  495      1      19.08844188       26.10848091        2.12089372
  496      1      17.74171290       22.75268656       18.64939514
  497      1       0.05095982       16.93119342        8.45778774
  498      1      23.47834711       25.11695817       24.95810793
  499      1      20.16301732       27.11080679       24.65563779
  500      1      24.60555656       15.48013830       15.94939809
  501      1      18.89355817       13.34972285        6.32700903
  502      1       6.38966093       21.99697368        2.41004113
  503      1      18.19441557       14.02490206       23.44377828
  504      1       1.68053565       19.35618095       13.62165782
  505      1      22.38804131        0.34092908       15.24675602
  506      1      17.89722199        5.37262308       14.72413267
  507      1      16.04500882       10.04654295       17.98128005
  508      1      22.05653621        6.74521738        9.73493964
  509      1      12.88784820        9.36267178        2.66424868
  510      1      13.84312047       27.55513042       13.53915134
  511      1       3.00617623       15.58995963        4.18095225
  512      1       2.47918683       16.43522148       16.14884073
  513      1       8.67557495        8.09674946       23.83414350
  514      1       7.69090893       16.95901415       26.15721208
  515      1      17.85263528       26.58619944       22.13769795
  516      1      12.70167913        4.77457183        6.07372704
  517      1      13.17618230       23.71530110        4.67119593
  518      1       7.06962913       20.18870632       22.95685818
  519      1       1.37067034       10.17125510       12.54682728
  520      1       9.99124080        5.52062013       18.06224165
  521      1      18.61155900       25.41891870       25.40704771
  522      1      23.21386839        2.01298285        9.04064526
  523      1       3.95631132        5.52544697       10.17546065
  524      1       3.08796517       15.92405425       22.68218897
  525      1       4.10126586       12.22716919       13.52841746
  526      1      16.35955435       17.24715868       24.60958349
  527      1       2.51364914       26.57052210        0.09038080
  528      1      12.86980047       25.96264540       20.59794898
  529      1      20.92933175       18.41410082       14.35619965
  530      1       3.91412439       21.81780716       27.17421219
  531      1       4.65749651        3.32784625        6.16544412
  532      1      14.81038073        8.23691158       12.19153719
  533      1       7.31288669        7.75994391       18.16030413
  534      1       6.48851154        3.34191934        7.57224597
  535      1       4.88997436        8.20703398       24.39869655
  536      1      14.27375770        3.44352366       16.80786931
  537      1       3.24397328        3.69500467        0.50113874
  538      1      23.75086994        6.76958717        3.08018697
  539      1      18.58071017       21.17065468       17.05675475
  540      1      21.09382579       22.64697397       15.38131133
  541      1      23.71639064        3.73425656       19.34709197
  542      1       1.18433435       23.84348111       20.12405762
  543      1      12.87912718       22.96117803       23.61627112
  544      1      13.40360587       23.61738363       13.37784638
  545      1       2.62162400       25.67035137       20.01092633
  546      1       3.02444953        1.59118095        6.10090657
  547      1      24.68725900       11.70658896       22.85424946
  548      1       7.93734346       18.92120897       19.87717388
  549      1      10.88396358       19.43609851        9.97071238
  550      1       4.66359039       22.19430791       24.86692771
  551      1       3.41309162       12.61441612        6.70655941
  552      1      23.88881298        2.38829423       12.66565728
  553      1      17.62391485        6.37335242        2.53322822
  554      1      18.54471810        3.09835806       17.71479733
  555      1      17.55453668        1.81257352       25.19632996
  556      1       6.78161639        3.23209913       22.24861576
  557      1      18.97979339        1.63654745       27.30485155
  558      1      17.80593875        7.93507294        0.79464022
  559      1      23.11134513       23.27244143       19.29421695
  560      1      22.78993926       25.30489586        2.89795233
  561      1       0.11879004        7.41307446       20.13299950
  562      1       7.72748052        4.75660794        1.43015162
  563      1       0.76249718       23.78290998       12.58786353
  564      1      20.29197749       16.71985032        2.14736353
  565      1       7.54601342       11.51795515       12.05486170
  566      1      26.83450376       24.29134352        6.71584304
  567      1      26.70293791       13.08670924       19.75066478
  568      1       0.84980033        2.14673141        7.11160217
  569      1      17.36553907        3.27956823        7.19087780
  570      1      27.39792616       25.02375028       16.02545338
  571      1      20.89008939       22.03419720       25.61034331
  572      1      13.71062420       14.86714765        6.13412161
  573      1      16.91457939       20.35647566       13.50020640
  574      1      25.52292720        0.30977954       17.42788946
  575      1       2.60913149       26.99157961       22.11029734
  576      1       8.89131732       18.78041959       25.44155847
  577      1       6.26256571       24.41710976        2.39085010
  578      1      13.12645858        7.46825736       17.72184285
  579      1      14.57791546       19.60514958       21.85178874
  580      1      15.71741716        8.51550178       21.95672370
  581      1      27.17017366       21.58701010        9.61848357
  582      1      21.23875442       18.76311910       23.74120658
  583      1      23.20024580       23.76843462        4.62382696
  584      1       6.64394364       21.09480749       20.75839609
  585      1      24.43843686       15.96000043       10.12546363
  586      1      20.64778065        6.85845012       24.85804556
  587      1      14.64286364        2.02624609        9.75886595
  588      1      25.87235534        5.80404567       11.15995853
  589      1      13.55641803        9.80812677       15.12112412
  590      1      17.20609459        4.74090134       22.96757734
  591      1      21.34883720       20.22840692        7.36757933
  592      1      18.68350364       16.79505401       12.07296760
  593      1       4.89080136       14.38577134       12.99086283
  594      1      11.14721981       14.74644910        3.09461367
  595      1      20.89496403       20.34252407        3.27343478
  596      1      17.83056216       27.63600698        0.74176832
  597      1      25.36367288       26.81247106        4.65911628
  598      1       0.20934841        4.97651207       17.52601214
  599      1       7.42787320        4.37031213       14.11315753
  600      1       8.90494113        4.42358359       25.07681557
  601      1       7.59300392       14.28171889        3.00087201
  602      1      11.46537513       16.11759722        8.97997942
  603      1      12.04307033        1.86451108       23.65611538
  604      1      17.56612772        4.19698652       25.20459358
  605      1      13.72455251        6.26420567        9.19812371
  606      1       3.56918574       12.24515735       26.51094721
  607      1      17.58988288        1.65092261       12.38121724
  608      1      27.13520076       17.15567857       18.85086520
  609      1      27.62333886       26.66784979       25.07149836
  610      1      16.24735339        6.82136573       15.75285574
  611      1      25.84711836       26.42653832       21.71488579
  612      1       4.48717801       12.71232857       19.41835153
  613      1      19.49579039        9.16508677       16.40058035
  614      1      25.36573858       23.29447502       20.10765998
  615      1      11.51602248       26.54175897        4.78924646
  616      1      18.04053053       10.46014121        9.97125071
  617      1       2.04661795       19.46486681       25.10482352
  618      1      13.67247000       26.15329476       10.17136012
  619      1       8.99633888       20.83163271        7.37109185
  620      1       1.96295606       19.94125615        7.16946341
  621      1      10.73344552       19.85235181       22.17664692
  622      1       6.88405644       22.82778066       16.95072779
  623      1      11.97773949        9.48408110        7.17033014
  624      1       5.79818579        0.91979183       26.68533307
  625      1      16.78516882       15.90066717       13.29116020
  626      1      15.29631813       11.33121024        7.12008917
  627      1      22.65437122        3.91759732        7.80145497
  628      1       5.83718339        4.26359835        9.59817613
  629      1      15.95880968       16.63197118       20.20734946
  630      1      10.67274813       21.95707468       23.51266110
  631      1      16.17173037       17.68775987        2.24689146
  632      1      20.60364313       13.57805943       19.08296894
  633      1      24.38030763        6.38719860        0.75251176
  634      1       0.85672576       14.70184971       16.67078126
  635      1       1.28051499        2.84306358       24.03162889
  636      1      17.86798346       21.98847472       14.90368022
  637      1      16.89496335       26.43153060       26.67078069
  638      1       5.49678886       17.70864827       25.89382155
  639      1       9.08614396        8.86868179        0.13365453
  640      1      23.59662255       22.09771983        1.18991688
  641      1      27.50238338        3.93147226       25.58425804
  642      1      11.02129380        1.21407373        8.91239935
  643      1       9.23601956       15.15206578        4.47458378
  644      1       4.60407658       20.11978048       20.13356683
  645      1       1.38278731        2.71699775       11.15257441
  646      1      14.49239015       27.09614595       21.88775173
  647      1      19.36354783       13.74189897       25.52625303
  648      1      21.34502390       15.77380333       27.46096733
  649      1      12.37826291       15.15933725       24.82827713
  650      1      21.42968087       18.41588750       16.69874057
  651      1      20.12206651        6.52490776       19.06812960
  652      1      26.91619251        9.65768832       11.70773624
  653      1       5.23346148       14.01087196        9.27882344
  654      1      25.29611996       12.03592055       18.19582992
  655      1       8.05125454       20.90635311        3.69565541
  656      1       2.03254756       12.78275269        2.27313234
  657      1      11.97787434       13.03188164        5.94336744
  658      1       6.47610148       16.04757788        1.90963773
  659      1      26.19262210       20.37479944       26.28459799
  660      1       7.86948641       22.67000032       19.05945970
  661      1      16.27157595        7.54297117       26.67581960
  662      1      19.39884250       18.53405206        3.35739170
  663      1       0.91645107       16.24594602        0.74039725
  664      1       1.23597508       25.39854769       14.18963866
  665      1      17.17826803        9.79113346        2.40658902
  666      1      14.95774857       14.52001511       17.55148398
  667      1      12.06557821       12.60503838        3.58956606
  668      1      13.01966507       19.87571135       12.99646437
  669      1      21.15302624        9.07990378       22.08695887
  670      1      20.74154115        4.98333713        8.84665846
  671      1      24.07743903        7.55070690       19.20997348
  672      1       8.59108197       11.77556083        6.81050042
  673      1       7.54511772       13.61923884       15.29927562
  674      1      16.40027934       27.29931833        7.48085467
  675      1       1.55714235       12.81836582       10.24804464
  676      1      25.69202369       11.54405804       10.93219730
  677      1       8.23169281        4.82098807        7.05444881
  678      1      20.40550034        4.70890402       17.58891539
  679      1      10.64234558       17.42997200        0.60313107
  680      1       1.91357639       22.77762337       22.06756759
  681      1       3.39009394        2.46805204       19.77282325
  682      1      12.65154445        8.61692290        5.01996462
  683      1      19.92804784        1.95522373       21.61421844
  684      1      15.31086617       23.82105647        3.76779634
  685      1      23.30286458        9.74417828       15.91235271
  686      1       2.31632060        8.83753169        3.19025926
  687      1      22.46282480       10.16367019        2.57806921
  688      1       4.23943051       12.31367979       24.29839036
  689      1      20.74992792       26.25456846       12.35895071
  690      1       5.28618866        8.60193454       18.88285965
  691      1      16.88102253       15.38787507       18.47562290
  692      1      20.97117809       10.23128278        7.22516245
  693      1      15.62286260        5.28005279       26.21109512
  694      1      18.98888970       17.81752930        5.77061292
  695      1       1.88903956       25.50991057       25.69386867
  696      1      21.36058746        6.52452735        2.15968915
  697      1      23.54315783        8.15337261       27.12376648
  698      1      19.01792376        0.66975393        5.15780036
  699      1      20.99901774       11.78750084        3.65934622
  700      1      23.50381106        8.31228513       21.63872933
  701      1      21.14635720       27.56950850        5.20426191
  702      1      25.05976861        8.74588816        8.74042596
  703      1      10.69711678       23.06529601       21.08841651
  704      1      10.51740675        6.74743029       12.06424890
  705      1      23.12439522       21.52820083       14.95677196
  706      1      19.28398257       15.83767687       22.03979140
  707      1       0.23593242        3.12687678        3.57895117
  708      1      10.77635115       26.74131598       21.41051393
  709      1      14.99821682       19.31338717       14.33494939
  710      1      16.41430036       27.58341550       20.59818743
  711      1      23.32143259        4.45198323       25.61721950
  712      1      14.53221367       17.39417429        0.46305156
  713      1       8.70732837        0.54793391       24.12901831
  714      1       5.44472803       17.70438282       14.59800020
  715      1       2.44500566        6.49873506       19.93189789
  716      1      16.30511976       20.07881159        9.79702796
  717      1      10.15896706       18.99102018        6.34877793
  718      1       1.38012533       27.57183319       13.39706997
  719      1      11.35037045       10.69922202       25.46315100
  720      1      25.48842100       19.58339558       15.95828826
  721      1       1.98014642       20.03080025       18.02963940
  722      1      19.14406945        2.60325132        3.81398279
  723      1       3.74126998       10.11142911       27.36083136
  724      1      24.03418213        4.80140106        4.29144919
  725      1      12.33560491       11.80556294       27.39997951
  726      1      10.08433459       13.36510768       20.25527828
  727      1      23.34374868        8.83361868        4.29392957
  728      1      13.70668983        1.92672436        5.96548147
  729      1      23.43164266        7.29477661        7.92534456
  730      1       0.11301047       16.05715411       24.35702695
  731      1      26.72109485        2.70347251        5.62101864
  732      1       0.39179389       21.22143826       25.12783355
  733      1      26.29486938        4.40797166       19.31404351
  734      1       7.21791803       17.92862770       17.83891138
  735      1       1.48668835       11.55714329        6.00579770
  736      1      19.23253986        2.07366295       14.20667675
  737      1       7.72878438        1.84879038       20.41451258
  738      1      20.97585391       14.34708611        6.47706569
  739      1      12.89892318       11.54231615        7.49140840
  740      1      13.77034461       18.67024345        7.79560859
  741      1      23.18918323       14.52259258        2.87938807
  742      1      19.13475002       11.48587821       15.94874343
  743      1       8.23826900       13.61367295       18.81953406
  744      1      22.94058287        6.77805345       25.25110343
  745      1       7.04750974       21.78898318       24.67112555
  746      1       3.35682280       21.35694209       10.63719622
  747      1       0.96784413        0.50091924       23.51849184
  748      1       6.07595114        8.76420041        2.50948793
  749      1       5.70729035       17.29316114       10.81437236
  750      1       9.99440581       26.23289928        6.54556141
  751      1      18.50958064       19.50461299        9.52279176
  752      1       9.22526169        1.72609023        0.07400574
  753      1      22.66079849        2.59638134       15.75753201
  754      1       3.73311312       20.31056825       23.82231251
  755      1      15.73453899        3.35951990        5.43015587
  756      1       7.10224766       18.87234600        4.45968881
  757      1      23.13691133       17.06870554       27.12048888
  758      1       3.81004784       20.25063003       12.70503082
  759      1      25.62343538        9.63261776       26.46546760
  760      1       8.80625400        8.96476388        9.37555357
  761      1       0.14846144       17.96251414       12.25269216
  762      1       3.15151325       17.17407174       13.97978817
  763      1      10.99806555       19.68717421       14.38354050
  764      1       7.43127773        1.67026632        3.64567548
  765      1       2.56133716       15.03081873        1.97460467
  766      1       3.66666552       17.76358855        4.17474284
  767      1      19.12322827       18.66027754       19.56790044
  768      1      14.60909339       18.07486555       25.87078356
  769      1      18.55544388       23.01090550       20.84923500
  770      1      17.12241973       16.50413416        6.52030863
  771      1      20.71362361        8.82676655       18.42404665
  772      1      24.40777610       13.15378176       16.26573590
  773      1       8.69904831       23.36916776       24.17947144
  774      1      14.03298165        1.90378440       18.61724838
  775      1      20.12131132        2.67783526        1.55595027
  776      1      10.46540325        7.19318643        9.73124395
  777      1      20.61520529        5.53062508       21.12916719
  778      1      15.60472057        2.88393628       12.90308490
  779      1      13.28626200       11.81877776       11.15676223
  780      1      19.45296735        9.07949190        8.74428864
  781      1       7.42103204       26.93036318       16.25281403
  782      1       4.80424511        7.68841684       10.01266726
  783      1      24.51696079       26.79228984        2.53462414
  784      1       3.64633043        6.00107850        0.48461659
  785      1       3.72989059        5.13894341       22.99877742
  786      1      13.60536124       23.58591652       17.64967120
  787      1       7.20444061        6.92508503        6.77878428
  788      1       9.80978795       13.72579890        6.30560090
  789      1       4.96950596        1.94195051       23.27141360
  790      1      27.25748353        2.15909402       20.29377358
  791      1      22.08947192       15.38814473       10.05487750
  792      1      21.53177741       13.49477631        8.67550538
  793      1       6.52049332       12.03401904       23.65138907
  794      1      23.96959699       12.19726406        6.05054831
  795      1       6.13682143       26.18964724       19.22591491
  796      1      27.46953550       25.05423608        2.43075425
  797      1      25.02171603       15.16240295       12.29964283
  798      1      25.72355667       13.66186149       21.92620414
  799      1      15.12665286       25.39069651        2.13936780
  800      1       4.53585701       14.25748115        5.42169746
  801      1      10.11446582        6.22309407       24.03797748
  802      1      10.68081455        7.49307518        4.32793544
  803      1      26.46321026        6.50129330       16.42199432
  804      1      20.06678582       20.86099553       23.67826154
  805      1       9.49788727       22.96605632       12.90515519
  806      1      21.06928677       23.59762984        5.93063867
  807      1       1.84207712        9.24340956       26.48707107
  808      1      10.76185930        3.40466161       17.70262122
  809      1      21.07404667        3.65010969       14.30420830
  810      1      21.00877732       20.09205101       26.95444250
  811      1      27.57080809        6.27176090        4.94177606
  812      1       8.51031496       17.02242958       21.48569791
  813      1      15.87503369        5.96442817        8.20476178
  814      1      16.56293378       11.80736920       26.78099124
  815      1       8.30326842       14.77687755       25.32144316
  816      1       7.60595982       24.67117253       22.54716591
  817      1      26.42401249        7.87614247       24.83928329
  818      1      14.57271206       10.93013107        0.05225806
  819      1      11.67054043        3.03486615       12.15804068
  820      1      10.84536466       12.36878802       14.41517259
  821      1       1.63712177       18.21727231       19.53992032
  822      1      13.78462077       21.02726315        7.68228837
  823      1       0.75561654       11.34114655       19.86027187
  824      1       0.75721547        3.63476193        8.99694794
  825      1      10.63011650       14.93635033        0.79949104
  826      1      27.39441197       23.87767510        8.91818877
  827      1       6.17973033        5.22641023       15.95263214
  828      1       0.86688891        0.90734970        2.96870277
  829      1       5.90410152        5.63407176       22.09686593
  830      1       8.82596551        9.61993546       11.73634080
  831      1      26.64837559       10.91115286        3.45310639
  832      1      19.62370733       11.24486602        5.49817854
  833      1       2.21632763        5.40529083        8.51699648
  834      1      15.52117234        0.01531607       15.22409338
  835      1       4.14854673        0.93069477       21.37139591
  836      1      25.87543912       12.26577109        1.69419160
  837      1       8.36312292       24.63826512        5.71843448
  838      1       2.66824143        4.45134592       21.02023153
  839      1       8.04470895       24.60801340       15.90898508
  840      1      22.03125128       26.72268796       19.80217092
  841      1      22.22270665       23.18914500       21.46291912
  842      1      10.29919061       15.34969194       21.61729494
  843      1       5.24197357       18.82632636        0.43708250
  844      1      12.28055308       10.17098437       20.45183908
  845      1      24.96863658       15.68018785       26.60219575
  846      1      13.27908812       24.77428922       24.94838567
  847      1       2.23272129        0.53350926       11.19231142
  848      1      24.33158288       15.52404125       22.72779938
  849      1       5.90061845       23.23335869       12.80157385
  850      1      19.14947967        7.95306184       12.47226262
  851      1      17.48541599       21.44677817        1.81098029
  852      1      15.66441457        2.40988218       15.21143198
  853      1      16.73920686       10.67360949       24.63723299
  854      1      15.34353878       13.19370582        5.57617720
  855      1      11.68356997        2.33476278       19.61570037
  856      1      11.42061426       22.56570949       17.28766351
  857      1       1.91497248        8.46875348       14.14167610
  858      1      23.20895310        0.77502113       22.87080793
  859      1       6.86044394       21.05834771       15.42188990
  860      1       9.02425567        4.33106239        4.98225703
  861      1      10.46715858       24.37945235       15.96509121
  862      1       3.34943248        5.24896547        6.34602060
  863      1      14.26949890        1.47819079       23.21205591
  864      1      20.21934595       10.23089895       20.27792520
  865      1      18.53142330       12.39637836       13.77097134
  866      1      27.25461028       26.37000525       17.90763070
  867      1       6.81579563        8.20511616        0.32432182
  868      1      11.05359533        5.26159710        4.48388098
  869      1      22.74407115        0.29097836       27.22710452
  870      1      23.40593687       16.96493822       17.37218483
  871      1      20.97900354        4.68803872        0.60058902
  872      1       5.25754187        8.60254633       12.10801221
  873      1      25.02455114       10.06121992       21.29338506
  874      1      13.87562116       16.36655265       16.61268964
  875      1       3.40995159       17.01714391       10.20198342
  876      1       4.38920956       15.23116000       16.73335743
  877      1      21.86438388       13.81685344        0.99829928
  878      1       2.99280979        0.87168783       14.82359023
  879      1       3.15147443        6.60743743        2.79939197
  880      1      26.13065298       27.65373989        9.26336605
  881      1       6.77529986       11.30685734       15.97627678
  882      1      15.08717592       18.44498701        4.21255578
  883      1      22.96173880        9.27744295       18.16961498
  884      1      13.79911468        5.82464535        1.93977263
  885      1       5.27271803       26.31657846       10.82634416
  886      1       2.75153984        7.06102505       24.07493187
  887      1       0.38445632       27.65919401        7.86906176
  888      1       1.95318572       24.55401070        9.14841291
  889      1      18.82083112       17.23229137        9.79141401
  890      1      22.46924728       16.70851453        3.05670458
  891      1       1.47987022       15.52293305       26.27953873
  892      1      12.26024370       16.57976800       20.99187021
  893      1      13.66657069       21.87693134       11.76915813
  894      1      25.89085447       25.75288831        0.61218760
  895      1      12.17424292       27.17080237       27.41440746
  896      1       2.85440858       13.79973141        8.64359163
  897      1      19.55662032       26.05922448       14.54633403
  898      1       2.97919986        8.84526019        9.04852122
  899      1      22.83612091        4.40433514       21.45493765
  900      1      25.24419146       26.61059369       13.32475611
  901      1      17.53961593        7.21345686       22.92774161
  902      1      20.80949466       23.91542092       11.80443842
  903      1      17.16372177       25.90621442       14.41621161
  904      1      26.68611746        5.98922204        0.91596374
  905      1      17.74647871       14.37295374       14.76826798
  906      1      14.26345850        8.74148808       27.01264364
  907      1      17.13779862       26.88902724       18.35910909
  908      1      23.94533504       27.60627689       20.80174612
  909      1       0.63459950        2.81530857       16.75619786
  910      1      11.32006643       26.48562493       16.64491807
  911      1       9.61495956       26.08041137        2.10983700
  912      1      26.77668050        7.82976751       10.14503166
  913      1       6.04040254        2.50176494       10.93857615
  914      1      20.40397494        7.80091529       14.65383984
  915      1      22.07703208       26.45571094       23.58474575
  916      1       6.77834619       11.34362608        5.36864733
  917      1      24.57113478       22.19925030        3.35932635
  918      1      22.20090152       20.22005205        1.32245362
  919      1      26.52217125       10.08558002       17.37260350
  920      1       5.37412732        7.35281784       15.49826219
  921      1      11.32176928       12.09661051       23.54333870
  922      1       8.90946272       20.90120671       13.97096200
  923      1      13.57397198        5.22377634       22.61289349
  924      1      17.53554988        8.49832307       24.94005808
  925      1      17.26743651       24.51470975        5.16607088
  926      1      26.11744540       14.99178696        8.67573843
  927      1       5.72977834       18.81234967       12.57137710
  928      1      11.69920208       27.63926109       14.47643510
  929      1      16.48089408       12.01531062        9.05936457
  930      1      13.65395047        1.25239851       26.74562321
  931      1      17.61035157       19.21032846       17.75278363
  932      1      19.64444967        1.15965004        9.31481956
  933      1       3.50785924       13.07753834       17.26878080
  934      1      20.01502596        4.40641367        5.03538316
  935      1       2.23566477       26.92081613        9.08504437
  936      1      20.97560827       15.74304650       20.13480508
  937      1      15.44803887        7.31655314        3.06142679
  938      1      14.92120335       10.57370240        2.32650692
  939      1      22.41142248       11.94887481       12.96474397
  940      1      14.68844702       11.79523164       14.40778258
  941      1       8.10171865       22.22514839        5.64007405
  942      1      15.70817003       17.17025873       15.14507092
  943      1       5.67267434       21.99201869        5.79796692
  944      1      12.63762807        7.77789888       19.96703570
  945      1      12.23409520        2.13604970        2.35212128
  946      1      26.11055963        4.26096226        9.44336570
  947      1      15.44382087        0.50227134       25.32271230
  948      1      12.49558121        8.26724638        9.17125570
  949      1      15.43520789       22.30041615       18.78070528
  950      1      21.39392412        3.21949730       24.96182858
  951      1      25.23911322       20.73443619        8.54347668
  952      1      10.38421373       21.66156123        9.23701052
  953      1       8.69271986        9.49186300       21.82926391
  954      1      18.01744050        7.48049622        7.46698019
  955      1       9.97836635        2.74713789       10.33790811
  956      1      23.68714885        8.01866484       12.76056343
  957      1      21.06244683       15.20088921       25.17763531
  958      1      13.43111067       21.62893875       27.03124020
  959      1      13.60641812       24.45220875        8.58719469
  960      1      15.18035985       15.95404644        9.73756637
  961      1       9.65610825       13.39698728        9.92002329
  962      1      21.04739910       17.13106016        8.94253307
  963      1      26.94604695        2.40660366       12.21800712
  964      1       6.09674874       27.13723459        6.82205119
  965      1       8.62745006       14.68195657       11.72008297
  966      1       8.01285245       20.84117568       26.56744912
  967      1       7.38680821        8.90924643       15.44674921
  968      1      18.38181922       11.27143286        0.74926611
  969      1       4.53381496        7.49397975       20.76647531
  970      1      11.75029088       13.19011638       18.53317801
  971      1      26.29250021       21.23850035       19.47882674
  972      1       0.35068883        8.06230518        6.47509545
  973      1      18.34144564       11.66965629       23.10448628
  974      1       4.62288440       22.95303694       17.64654657
  975      1      11.23509313       10.03240265       14.65908009
  976      1      25.11137680        1.49333724       24.06606540
  977      1      19.76524667       22.41566668       13.40696967
  978      1      25.91714655       12.30054190       14.72775787
  979      1      17.17856853       27.25916708       11.17414137
  980      1       0.94189468        0.68599028        0.58813079
  981      1      14.17440540       11.57470296       20.72190628
  982      1      23.22737240       25.91683218        7.70624618
  983      1      15.17388193        3.44751461       22.26821566
  984      1      24.23187627       13.48684220       25.83500983
  985      1      12.80576060       17.36704798       18.66827445
  986      1      25.82863380        4.85420419        5.75341010
  987      1      14.85910545        5.75824740       17.36935580
  988      1      11.59478847       19.83009187        4.69766121
  989      1       3.56671597        3.27303332        2.89306365
  990      1       8.60904162       17.33644370        5.54023949
  991      1      25.79889584       13.59181461        6.52695793
  992      1       3.94622653       23.67786318       23.14808569
  993      1      17.58903679       16.95991863       16.75760775
  994      1      13.28753603       25.51719533        6.26425990
  995      1      22.36560357       13.33872677        4.75973076
  996      1      24.49713882       18.54922236       13.87512043
  997      1      19.22253897       25.25163249       20.88013836
  998      1      12.24902399        5.31874668       12.54437025
  999      1      14.31083084        2.16493091        1.08295163
 1000      1      18.07526479        9.64918809        4.70259611
