run_id:  1003  total_energy:   -3026.4545652078773

  1000 atoms
  1 atom types
  0.0   27.664  xlo xhi
  0.0   27.664  ylo yhi
  0.0   27.664  zlo zhi

 Atoms

    1      1       0.02534704       18.75332010        6.74628516
    2      1      14.61305045       18.57311866       19.60344496
    3      1      19.85800188       15.24657562       15.87632374
    4      1      17.39810415        8.35154734       17.15521157
    5      1      12.83119431       12.81841418       13.22723443
    6      1       8.85601447       16.65296561        0.72637149
    7      1      13.86466711       23.98036485       26.99051705
    8      1      24.93654466       22.93992186       12.37656059
    9      1       0.65589630       26.02120641        6.10598810
   10      1      26.73401607       27.54029350       27.10319101
   11      1      26.23229397       24.03944121       26.54268064
   12      1      24.73706144       12.82383533       12.65234528
   13      1      11.76479311       16.38557149       11.37872429
   14      1       8.77906317        2.83981194       23.40035194
   15      1      22.30111139       12.23126590       22.82506519
   16      1      16.00576780       21.58278890        7.97754983
   17      1      22.71386593       17.48633012        5.25760008
   18      1       5.64305980        9.40189411       26.31441986
   19      1      25.01308459       10.28879458        5.07626734
   20      1       8.66483209       12.93742296        1.26631277
   21      1      25.62487383       18.09429037        1.79385745
   22      1       2.99699632       23.64901283        7.18085027
   23      1       4.99134996        2.31507764       17.98206942
   24      1      10.39273241       14.37178681       23.84640570
   25      1       0.38992919       14.97230631       19.02631205
   26      1      27.41987574        9.50336952       21.19428174
   27      1      12.91846256       18.16483937        3.62067553
   28      1      22.33428861       19.11328157        9.33063976
   29      1      17.73889297        3.21305114       15.55877489
   30      1      27.30066666       22.38671682        5.60033753
   31      1       4.85704379       21.73746846       14.16131101
   32      1      16.66373540       18.82839070       22.83286593
   33      1      16.95273143        2.93342109        3.36211263
   34      1       9.68460939       16.72614520       12.31432508
   35      1       8.23643038        6.07202690       12.54189553
   36      1      15.73620106       27.19092039        3.59785289
   37      1      10.63985780        6.58957499       20.11243072
   38      1       7.06566374       26.95071215       23.04303027
   39      1      21.89060187        2.74382585       18.08164026
   40      1      10.72723156        0.53634827        1.30032858
   41      1      10.81521417        7.14754369       27.65204549
   42      1      10.64181960       25.35713699        8.64896998
   43      1       4.51479505        0.65417759       11.51310844
   44      1       8.86849782       18.80753519       23.10357435
   45      1       1.36275526       13.16100999       26.41904390
   46      1      23.72847714       11.01921270       19.49178239
   47      1      14.37068262        7.67032398       14.47350541
   48      1       6.62321444        5.01119864       25.70682257
   49      1      14.97674636       20.37298179       25.91378396
   50      1       9.77688511        4.83015769        8.97385987
   51      1       1.37855588       18.50797277        1.09285259
   52      1       7.37408654        2.40921360        1.29545950
   53      1      24.47648336       19.94641547       22.70343681
   54      1       0.32861936       21.47457622       13.32669857
   55      1       6.90004528       21.94580788       11.02400930
   56      1       4.65620575       24.59684036       19.67776278
   57      1       1.88528195       18.82783202        3.35912711
   58      1       5.77464986       11.72235502        9.28726661
   59      1      27.18605414       11.72648232        7.35588516
   60      1      23.34142678        4.41620829        0.21526863
   61      1       2.40630441        3.03041078       15.26408545
   62      1      18.78393535        0.72422607       23.30630346
   63      1       8.13738472       11.66133033        9.24136369
   64      1       5.43201721       27.57218343       17.41112059
   65      1      20.41911352       21.76573225       21.54799285
   66      1       7.08585891        5.12902066        3.62171660
   67      1      15.95616781       13.22040670       15.94333626
   68      1      24.44344201        7.23045353       23.54829888
   69      1       0.19318303       12.29247857       24.60736121
   70      1       7.17622350        2.98949223       18.44544385
   71      1      10.37219610       17.37274690       14.60650830
   72      1      13.74272310        9.71950519       17.34845574
   73      1      13.30603872       21.08914863        1.55420340
   74      1      24.85556170        3.51835901       14.79780811
   75      1      26.36765554        1.83823512       15.78667233
   76      1       2.66752213       10.65040289       10.63270880
   77      1       2.65708829       23.56926803       11.14393770
   78      1       7.71759351       20.00543424       12.11082329
   79      1       3.86146287       16.80930644        7.74719709
   80      1      23.75721697       26.56333747       16.60334695
   81      1       6.99940126        7.52650217        9.03360558
   82      1      18.81342206        4.00191120       21.35683182
   83      1      11.02074449       18.97855935       26.22478056
   84      1      14.75771494       27.41090374        5.81396593
   85      1       0.76437053       22.11845037       18.72892326
   86      1       5.67711806       17.96974524        2.75185251
   87      1      26.79484722       25.16785277       19.95800993
   88      1       9.57267187       14.98143333        8.21867075
   89      1      25.28085613        3.79624569       24.48717211
   90      1      24.21970781        5.80697940       15.86723125
   91      1      11.78036683        4.50159857        2.42374287
   92      1       0.56435571       12.58940295       15.63216657
   93      1      20.02229299        0.35746943       15.59496150
   94      1      16.10597049       10.25676495       20.34059237
   95      1      22.82754566       14.22848899       24.05175846
   96      1      17.71755807       20.81776911       23.70570280
   97      1      10.03949419       19.78237202       19.78466362
   98      1      12.98363500        9.46675338       11.21714305
   99      1      25.52379904       10.08480514       15.27274331
  100      1      27.53153116        6.23842476       26.30232055
  101      1      22.77220114       11.60585632        8.03366560
  102      1      15.02690087       26.03581671       23.98863105
  103      1       8.98670894       14.69393623       16.84464127
  104      1      18.90874397       22.89874673        5.06602169
  105      1      17.88440028       26.50864283        4.11348984
  106      1       2.92256480       25.46647922        5.77613286
  107      1       9.69373168       10.01074177       18.13683723
  108      1      11.20648283        5.35201704       22.12288628
  109      1      23.76375929        1.41909618        2.61878708
  110      1      16.04430677       24.51815668       27.66117976
  111      1      13.84691593       13.62501834       19.48400505
  112      1       1.78850250       15.66876235        7.45196870
  113      1      11.10508134        6.91661669       16.51579787
  114      1      12.87529703        7.74589560        0.96687066
  115      1      23.81959837       24.44503464        9.47115966
  116      1      17.20558961       14.58917635        5.21304006
  117      1      19.84662289        4.88158207       25.93622823
  118      1       8.68151163        2.37034246       14.72288897
  119      1      18.95691428       18.94527489       13.06816337
  120      1       8.90353713        2.11947570       17.05840165
  121      1      12.56219865        5.88184045       14.81326720
  122      1      18.13669033       15.15637094       27.06687039
  123      1      26.95318266       14.24366676        4.59007019
  124      1       5.70575394       19.14558065       16.26304645
  125      1      14.48022512        6.79228338       21.03546314
  126      1       2.63396364       12.36690703       20.88425422
  127      1      19.64816754        6.29968761        3.73872609
  128      1      11.11700363       13.92850997       16.26521524
  129      1      20.92706451       16.68948556        6.59464324
  130      1      14.91208925       22.21776981       20.96832846
  131      1       5.07841734       10.99598655        7.07355556
  132      1      14.92209324       17.20884447        6.20356318
  133      1      25.17636928       25.20488057       15.25889267
  134      1      16.85152031       22.74465838       22.47213094
  135      1       5.24352428       23.20853452        7.63324219
  136      1       6.08337590       20.97530529        0.34439450
  137      1       9.51086809        2.01259517        4.96722384
  138      1       3.01560856       19.46772816       27.38538275
  139      1       6.32852658       14.99038052       11.16933082
  140      1      13.00830997       15.81533725        3.83952212
  141      1       9.60356413       24.48306464       26.11729723
  142      1      26.88300604        0.64930997       13.78442310
  143      1       9.16562307        9.69501710       25.60571122
  144      1       3.89677025        9.00378189        6.86858917
  145      1      17.18572593       23.46916466       10.81428074
  146      1      21.62481688        8.60182431        1.01911894
  147      1       1.83440827       21.87907318        5.94941557
  148      1      11.45526636       26.90416654       10.27043605
  149      1      13.75998962        1.82951320       11.98446183
  150      1       7.36351032        1.17524139        7.91428454
  151      1       0.39958022       12.14819304        0.60634469
  152      1       0.09660713        9.14562289        2.40044354
  153      1      15.44904382       20.61590338        4.74073480
  154      1       7.80275364       25.62497383        3.64949821
  155      1      14.07461663       14.38462014       23.38852790
  156      1      24.76139059       17.69938291       19.20322285
  157      1       2.06840989       24.90474243        1.72322372
  158      1       8.73563262        8.28604511        5.43315896
  159      1       1.27637902       14.13136543       12.22098174
  160      1       2.11800015        6.90761156       26.37881490
  161      1       3.41921397       20.17352409       16.62659342
  162      1       5.47212834       16.35916901       18.44608344
  163      1       5.07931585        1.12277719       13.79592432
  164      1      27.45418002        7.07218405       14.33920318
  165      1      13.36056054       14.85798594        8.55512677
  166      1      19.41768064       23.58387746       26.72082644
  167      1       5.86101898       15.17241783       14.86285942
  168      1      10.97145909       18.62200062       17.92729429
  169      1      14.67982974       18.27752296        9.85147654
  170      1      26.60839813        7.24099090        3.01695463
  171      1      11.50481683       24.50871131        2.76400340
  172      1      20.65581039       15.34733575       12.09220163
  173      1       7.38824049       17.95728701        9.24686653
  174      1       1.74002708       14.50683593       21.28341443
  175      1      16.35026871        9.18492984        6.29375364
  176      1       2.24570568       21.12813752        3.70025698
  177      1      18.12424660       13.58612071        8.56043097
  178      1      25.68192254       23.32748542       22.61495223
  179      1      11.52982401       18.22130624        8.02861513
  180      1      25.53496010       18.07302237        4.07489371
  181      1       8.25893796       25.22760120       19.01410686
  182      1      22.56759900       21.03606562       18.70474202
  183      1      15.39653122       21.75493944        2.75369855
  184      1      21.11522441       26.86562381        2.97248271
  185      1      24.97348006        1.48260355       19.39731773
  186      1      21.92600966        8.32936898        6.16016945
  187      1       0.81846110       23.35467691       26.27414036
  188      1      12.53672097       18.42993124       22.55276121
  189      1      17.44435398       22.58755432       27.41097166
  190      1      14.92050246        5.54768104        6.07995643
  191      1      14.27769983       25.55543701       12.35499791
  192      1      10.81314877        3.08838906       22.00482959
  193      1      25.71854984       25.27201418       24.09702574
  194      1      21.78724503        0.97232123        1.63209265
  195      1      10.27080969        3.55178856       26.73156266
  196      1      18.03560026       24.71370558       17.48156427
  197      1      20.91538300       20.77293290       17.04697978
  198      1      16.56416225       25.34922960       12.24758400
  199      1       3.41321130       26.85266908       16.46470306
  200      1       1.26053738       18.05211892       10.13152524
  201      1       3.99071329       15.93708691       26.20642647
  202      1      16.03032751        5.78868010       19.39411048
  203      1      22.04974215       20.54081263       11.25731895
  204      1       3.75841799       24.85823461        3.47407338
  205      1      18.28428587        5.71438184       12.34553103
  206      1       9.16131994       10.58718854        1.86871808
  207      1      26.79982957        5.52279263       21.30448767
  208      1      26.27497376        7.93495093       18.31520030
  209      1      26.88390216        4.86500328       13.20958488
  210      1      12.94306963        8.98830252       25.09838482
  211      1       4.69804573        9.29536618       22.35708618
  212      1      24.77030657       22.20619940       26.77754632
  213      1       0.16634801       17.85443517        4.68272330
  214      1      23.19415688       16.71686311       20.92848073
  215      1      13.18176171       25.92364377       18.12908479
  216      1      14.12327412       15.28246014       21.17422737
  217      1      26.25522210       15.96900767        0.99533254
  218      1       4.86743407        3.20563354       26.43431605
  219      1       3.81634214       18.61897810        6.32731712
  220      1      20.48556262       10.72145242       23.77608446
  221      1       9.90220424       22.35587609       27.23878473
  222      1      11.37913423       26.01258493       25.47887329
  223      1       1.74039190       12.28394850       13.59771383
  224      1       9.79691845        8.86458481       16.10548620
  225      1      17.30243845        3.78686370       19.56475785
  226      1      16.55460328       11.42380891       12.90769182
  227      1      25.54018966       14.39359299        2.60618068
  228      1       6.15070082        5.98292604        0.12828660
  229      1      13.65175558       12.07129080       22.98526123
  230      1      26.67278864       20.20964213       21.64260411
  231      1       7.62668924        5.60526778       10.26098204
  232      1      22.63857122       19.77689113       13.47388978
  233      1       4.40725886       12.16302032        2.33788586
  234      1       1.06987693       19.02334976       21.73949603
  235      1      21.40980488       16.13169931       14.12869764
  236      1       1.80529703       27.06637790       18.26346168
  237      1      17.04890004       24.92428858       23.60639535
  238      1      20.04425269       24.01773082        1.30726687
  239      1      14.21068241        6.10105168       11.43910804
  240      1      22.30668745       25.23241725       17.98422928
  241      1      14.67413045        9.97002724       23.67107450
  242      1      19.54900003        7.83878309        5.40928871
  243      1       5.41791261       18.69986205       23.75092461
  244      1      24.83825982        2.73938758        0.91379168
  245      1      12.17852670       12.82885372        9.40521949
  246      1       6.89784564       24.97767335        7.50852276
  247      1      19.00754283        5.07180816        7.13486546
  248      1      12.17848566        3.65336911       15.82738652
  249      1      22.54073949        9.81767090       11.63117824
  250      1       1.64557424       18.85146106       15.78890729
  251      1      16.08169676       14.15812032       26.58877572
  252      1       3.00383301        1.15249689        3.75636817
  253      1       5.18426134       13.10577391        0.26503712
  254      1       5.68817109       23.54236551       21.57763931
  255      1      11.84182005        6.84697865       25.46874898
  256      1       0.98684243       15.74585687        5.20410485
  257      1      24.27727161        0.29803421        7.87729270
  258      1      24.65602443        5.18010681        7.76971182
  259      1      15.48363578       27.57803983        9.58026653
  260      1      23.36977875       18.16139039        1.44562859
  261      1      21.14210612       19.95072242       20.30546686
  262      1      25.52951365       16.71427599       24.55020955
  263      1      24.88688334        1.26164175       26.65507855
  264      1      19.94139458       16.88780585       24.07469332
  265      1      12.82750907       18.71623620        1.43370147
  266      1      17.48898733       21.19092386        6.12093542
  267      1       7.57730713       26.65881772       10.77069102
  268      1       9.34055854       24.99238741       21.06348604
  269      1       6.94947382       19.94700300        8.18756014
  270      1       5.46045166       21.52979977        9.29280249
  271      1      16.37415512        3.66896366        9.44192047
  272      1       4.90934835       10.89005219       11.63153708
  273      1      21.78653005       12.01983264       20.41186340
  274      1      16.05412631       21.50460225       11.59643889
  275      1       0.01634675        9.83540842        0.12680488
  276      1      22.26096349        3.78788461        5.48872321
  277      1      17.82062164        7.25829523       19.15686656
  278      1       4.86339917       17.17382357       21.98217446
  279      1       8.93742191       22.95462731       10.53385575
  280      1      20.35152813       24.70052590       16.50383373
  281      1       9.65102634        9.63300775        7.10995315
  282      1      26.76016704        0.85404278       22.34133079
  283      1       2.00756455        4.97850948        4.26439768
  284      1      20.90361141        1.13832744       26.03807973
  285      1       2.61382772        5.84397663       17.65523997
  286      1      22.79970529        7.70005305       14.84001613
  287      1      15.51441881       12.61248934       11.14664319
  288      1       4.38110734       14.69531548       24.25842286
  289      1       1.44771242       10.30731568       24.31331397
  290      1      21.41002713       25.37704200       21.62327348
  291      1      10.38647836       11.23598806       21.55445755
  292      1       4.09938496        4.09286451       16.62089898
  293      1       2.79691554       20.65828643       21.96851558
  294      1      23.42227793       25.70603351       27.22688626
  295      1      20.69569857        1.02281885       19.43957972
  296      1       0.10670423       14.09296481       23.01807744
  297      1      17.84193234       17.54738892       21.24358338
  298      1      14.29075250       15.02854425        0.24864299
  299      1       0.54915042        8.45395861       23.32329469
  300      1       4.77872515       27.08433972        0.58822988
  301      1      19.36062014       25.32440754        8.55914791
  302      1      14.67091598       14.66047909        2.49814409
  303      1       7.24641570       11.05911077       25.64409758
  304      1      17.25875597        4.36172325        1.57064977
  305      1      19.96743053        7.16740216       22.61457037
  306      1      16.71791409       23.92544058       15.57457174
  307      1       4.09088518        9.91820106        2.03844189
  308      1       1.57787737       20.29710254        9.43004299
  309      1       9.48186452        0.83837077        7.05910415
  310      1      24.91642393        1.08522447        5.80710595
  311      1      20.13824805       16.94931631       18.10780852
  312      1       0.95172452        3.00120686       27.62443110
  313      1       3.10910470       10.99631005       22.78241493
  314      1      23.74439756       22.18978352       23.02018371
  315      1       1.38507170        1.66780301       18.77303595
  316      1      14.90238476       27.47012733       17.54534898
  317      1      13.23007898       21.41948419        5.42118769
  318      1      25.71414877       18.97808705       11.88255429
  319      1      24.63745555       18.46666117        9.75600095
  320      1       4.28965583       24.75971895       12.36972307
  321      1       7.78079709       24.33583756       13.63355314
  322      1      12.51582853       17.64334278       24.84881376
  323      1       2.04498057        9.33829794        5.52697847
  324      1      20.31355330       13.01781082       12.28923276
  325      1       9.91744561        0.72991315       19.94005567
  326      1      23.79144647       22.59631618        8.05073086
  327      1       8.36797910       26.46104971       12.86145288
  328      1      23.45364643        5.98252135       11.52581539
  329      1      14.83588752        7.70842870        5.21830912
  330      1      21.39111929       22.43490657        7.95727169
  331      1      23.79779179       16.28301381       13.96660644
  332      1       3.80155039        5.17475495       12.55689654
  333      1      22.56064722       18.78799304       21.82018358
  334      1       0.67386110        3.79940893       21.91032709
  335      1      11.02172506        2.22543239       14.26043581
  336      1      26.35169291       21.20275436       11.74720416
  337      1      19.71887683       20.59901185       11.48511797
  338      1      24.84562078        5.18483946       22.61382879
  339      1      19.88357231        4.38728069       11.02452844
  340      1      19.05079336       19.71439217        7.18197188
  341      1       8.77608327       13.04403227       13.39902205
  342      1      11.45663663       11.04774733        1.92678078
  343      1      18.71830068       19.17251143       27.06085539
  344      1      26.89218357       15.96752775       15.42590690
  345      1       3.53344701       25.89205955       24.01355946
  346      1      10.05932545       21.99502426       19.16543906
  347      1      24.09385496       10.92950464        0.85547277
  348      1      13.48206008        5.12852579       25.07474212
  349      1      25.88790485        8.62111947       13.48477401
  350      1      26.24748125        9.57780607        6.92805320
  351      1      18.22070534        1.13109475        7.28248629
  352      1      26.81169292       22.92898598        3.33527466
  353      1       8.10814916        0.30033060       26.40370948
  354      1      12.94837858        2.31021216        8.24868211
  355      1      19.75739865        8.98507129       25.45838733
  356      1      16.10301119       14.90299319       24.33841894
  357      1      19.75981060       12.46632130       10.03591773
  358      1      18.18447605       13.28235260       19.17218433
  359      1      22.60688520       18.80994714       25.64499376
  360      1      25.93156297       25.31734558        9.91228145
  361      1      15.13235134        4.38608437        0.66170232
  362      1      12.37618949        3.04086844       25.69178418
  363      1      10.17162932       20.39248035        2.73021172
  364      1      26.26179509       24.82629967       12.05844551
  365      1      16.17810667        1.15146144        2.09429800
  366      1      19.01319773        0.73965756       17.79214029
  367      1       6.61874846        6.76121416       24.02494912
  368      1       6.62292616       15.71489478       21.68693224
  369      1       8.38335701       25.88271351       27.55556661
  370      1      15.43915297       20.07560179       18.04934617
  371      1      10.85041392       27.49791734       23.69183954
  372      1      26.93709450        3.73622992        1.47143622
  373      1      23.16683850        5.74906833       18.00183091
  374      1      14.39149379       12.59645100        3.47033088
  375      1      16.83437440       15.46589232        2.98285994
  376      1       6.19948787       14.50923862       19.70539181
  377      1      26.12687286       20.50135909        6.43261323
  378      1       9.04900728        8.35842629       19.78400710
  379      1       3.96019373        7.32910215       13.58117625
  380      1      27.04821058       12.79042680        9.49728705
  381      1      24.71090883       19.96761102       18.29283591
  382      1      12.74334419       22.30582485        9.42365114
  383      1      13.00262119       23.69637445       21.29673234
  384      1      23.93095960       10.48949793        9.80516581
  385      1      18.11420619       11.37798094       20.76835360
  386      1      14.22572124       20.60667159       16.08833331
  387      1       5.83570441       19.70023287        6.17987602
  388      1      27.04763172       19.76393100        0.85347245
  389      1       4.13924535       17.80443371       19.88730315
  390      1       1.07395371       10.95300409       17.33983777
  391      1      11.10979600       22.28687879        1.72620241
  392      1       1.58891995       17.61581064       23.57671778
  393      1       3.76252616       27.26730004        7.11844586
  394      1      26.75988694       21.59716122       15.28259173
  395      1       7.38777011        0.42660063       14.26996025
  396      1       4.54668797       27.18232099        3.03721651
  397      1       5.51882063        3.49885911       13.09349398
  398      1       5.63747483       15.30885762        7.30264143
  399      1       6.33006963        0.09103826       20.92803202
  400      1      27.22129880       18.01290279       16.52517024
  401      1       9.00291301       18.49161270       10.87742505
  402      1       7.90355941        1.29329550       10.22009298
  403      1       1.81605726        4.15577912       13.20581344
  404      1       5.68298125        3.32059592        4.05895969
  405      1       7.42187114        8.24020447       13.01898610
  406      1       1.05664497        7.46105124        8.67206904
  407      1       2.71098054        9.65390905       16.10725631
  408      1      25.30838426        2.23161683       10.43204274
  409      1      19.32042771       26.81870742       10.38536239
  410      1      18.40471838        2.71183602       10.48298761
  411      1       7.57690459        5.38386523       17.89179780
  412      1      18.31653418       17.20970020       25.81698270
  413      1      11.85897684       10.88365612       18.33256105
  414      1       6.15586620       25.19373764        0.22027846
  415      1      14.47234019       21.27165476       23.85167435
  416      1       3.11773361       15.52451290       12.13499968
  417      1      12.21516379       14.23205060       27.11781419
  418      1      21.66080619        1.56410487       10.68328377
  419      1      22.96080594       27.66214436       12.92923319
  420      1      10.70832758       26.42617948       12.67602714
  421      1       6.60235320       10.53629661       21.76601924
  422      1       0.61947116       12.42234237        4.11088056
  423      1       7.75132155        9.77124453        3.80222628
  424      1      19.63013942       23.30572032        9.81680891
  425      1      20.72336606        8.45202674       10.68662664
  426      1      22.37984739       24.12895442        1.02799910
  427      1      17.24568068       20.75238170       26.01128399
  428      1      12.74688430       18.51994972       11.18182067
  429      1       3.44586401       24.96892455       14.80676650
  430      1       5.86112000       12.98226629        4.03066952
  431      1       7.41478797       13.01605084       26.95306482
  432      1      24.92570071       22.91246626       14.64394918
  433      1      22.85563190       22.88995406       11.22122034
  434      1       3.55470398        3.33829609       24.41371382
  435      1       0.70087168       22.84475763       16.52144308
  436      1      21.06599068       25.76528647        6.87417731
  437      1       8.43653796       24.97462085        9.38403010
  438      1      15.96580544       23.77188662        8.75317790
  439      1      12.97232765       25.38653089        1.11832487
  440      1      20.72271931       13.12277940       16.67070917
  441      1       3.83866095        7.91947596       17.14883413
  442      1      17.26648350       25.17049334        7.45611425
  443      1      17.31519514       15.80676995        8.72379565
  444      1      10.11120771        5.07894403        0.84404323
  445      1      15.24062089       14.92298925       11.83258982
  446      1      11.02867051        9.07764800       12.54141657
  447      1       4.37277103       22.30256276        3.79139927
  448      1       4.94292917        7.02925441        6.02389033
  449      1      24.86136387       19.01083891       24.82742797
  450      1       6.46572037       27.36215089        4.38050828
  451      1       9.41185141       27.39421865       17.73187300
  452      1      27.55086387       26.71384949        4.06258773
  453      1      19.63134647        9.32145718        0.05908035
  454      1       1.92890510       22.88701974        0.57457594
  455      1       5.93153992       10.83944681       19.50172222
  456      1       0.55411719       21.63331720        2.03334831
  457      1      17.30509433       11.96580521       17.32381566
  458      1      11.19568179       24.29366691       13.69757404
  459      1       4.64361798       15.22905497        0.69319670
  460      1      22.03486582        3.96067172       12.17336617
  461      1      20.14896584        5.55634602       15.37664932
  462      1      19.80454615       12.87023568        1.86728773
  463      1       4.38971913       11.42062504       15.74763038
  464      1       5.28494624       27.55363713       24.50828343
  465      1      13.08983598       15.11847286       12.93041020
  466      1      23.10185393       22.78238330       25.15745030
  467      1      17.10436473        9.29496012       11.95474691
  468      1      24.59717480       20.21283977        4.69632242
  469      1      21.84578856        2.65378195       22.69526614
  470      1       7.76775340       16.39096696        7.55682752
  471      1       5.34612315        6.86476311        3.70636528
  472      1      25.62142681       11.67778347       25.05717090
  473      1      22.86043117        1.62954858        4.87287835
  474      1      22.51620827       12.01508299       15.42255358
  475      1      27.49397493       21.93853203       23.04093101
  476      1      11.43404542       21.26112387       25.88641878
  477      1      15.72616462        2.25882646       20.24162096
  478      1       7.73696759       11.43253702       18.13892005
  479      1      22.79405712       12.31805118       27.22392578
  480      1      11.84455477        1.29492362        4.51941732
  481      1      12.21369917        4.60131403        8.35058869
  482      1      22.31679014       19.81306405        5.21145604
  483      1      14.48074407       23.02484966       15.50340753
  484      1       6.71180064       14.44309487       23.61526480
  485      1      17.89086107       19.15323694        1.64304416
  486      1      18.69703410       14.97109090        1.71151300
  487      1      24.63575526       25.00046596        6.04389815
  488      1      19.43005388       22.25876667        2.88553646
  489      1      16.11923969        4.84311796       11.65980832
  490      1       9.21302266       17.15314886       16.81686757
  491      1      12.17140452       15.78358287       15.11964750
  492      1      11.86118592       20.33740606       16.45171836
  493      1      27.24312896       15.75014641       13.00470870
  494      1       3.19255788       22.76400019       15.85153127
  495      1      19.09102695       26.11809945        2.12471702
  496      1      17.74209035       22.75261713       18.64845408
  497      1       0.06367057       16.91401770        8.41357722
  498      1      23.46453096       25.12573367       24.97093276
  499      1      20.15947908       27.12333324       24.65773859
  500      1      24.63793316       15.51430609       15.95382897
  501      1      18.88885451       13.35247463        6.32537371
  502      1       6.40546659       21.98695983        2.38208834
  503      1      18.15856979       14.04259927       23.44532462
  504      1       1.65372113       19.39565894       13.43139355
  505      1      22.39631600        0.33704957       15.25552265
  506      1      17.90156178        5.37679481       14.72723662
  507      1      16.04476614       10.05844286       17.98728565
  508      1      22.05718321        6.74530476        9.74092628
  509      1      12.90248464        9.36759297        2.67178831
  510      1      13.84633505       27.55085630       13.53929617
  511      1       3.02963958       15.58449986        4.16137498
  512      1       2.53568739       16.33450284       16.02548284
  513      1       8.67166384        8.09314929       23.82591599
  514      1       7.92946110       16.83660027       26.23992481
  515      1      17.85563023       26.59521534       22.13441758
  516      1      12.70493126        4.77399985        6.08019320
  517      1      13.18552310       23.71615167        4.66494025
  518      1       7.04953916       20.22659243       22.93662346
  519      1       1.36823252       10.15566452       12.54233172
  520      1       9.99336298        5.52239080       18.05739013
  521      1      18.61244815       25.42998311       25.40707724
  522      1      23.21695297        2.00873811        9.04683028
  523      1       3.95517707        5.50453928       10.17895489
  524      1       3.10020789       15.93395120       22.71226151
  525      1       4.10306217       12.17648523       13.51600193
  526      1      16.32769289       17.26953727       24.60901192
  527      1       2.50472416       26.58122964        0.10567349
  528      1      12.86970487       25.98849800       20.58871657
  529      1      20.94970063       18.41752027       14.36903065
  530      1       3.91308408       21.83297509       27.22791169
  531      1       4.65776566        3.31853422        6.17037167
  532      1      14.81539273        8.23948515       12.19391179
  533      1       7.31397219        7.76057608       18.15413603
  534      1       6.48948228        3.32906986        7.57638287
  535      1       4.87585383        8.20098362       24.38861975
  536      1      14.27665775        3.44768957       16.80647065
  537      1       3.23250436        3.69650952        0.51006070
  538      1      23.74866987        6.77385729        3.08429521
  539      1      18.58756734       21.16967533       17.05871541
  540      1      21.10401308       22.64587553       15.38716297
  541      1      23.71554955        3.74337988       19.34834502
  542      1       1.15788987       23.92782763       20.25796660
  543      1      12.87617985       22.99580035       23.60734311
  544      1      13.40629324       23.61098015       13.37483682
  545      1       2.60497656       25.72391266       20.07173743
  546      1       3.02687908        1.58200133        6.10567231
  547      1      24.68756740       11.72553625       22.85139020
  548      1       7.83147897       18.97230192       19.87802389
  549      1      10.89911426       19.43196936        9.93137591
  550      1       4.67443169       22.21711223       24.93373877
  551      1       3.40564365       12.59796866        6.70733127
  552      1      23.89298586        2.38113081       12.67150892
  553      1      17.62840348        6.37681013        2.52960046
  554      1      18.54866159        3.10370141       17.71566092
  555      1      17.55695944        1.82641694       25.19621371
  556      1       6.78247012        3.25749007       22.25364310
  557      1      18.98104934        1.65114141       27.30768779
  558      1      17.79239788        7.94769011        0.79860859
  559      1      23.12429886       23.27077112       19.30958238
  560      1      22.79069002       25.30888610        2.90867996
  561      1       0.11643256        7.42468250       20.13157864
  562      1       7.72787885        4.75847546        1.43527690
  563      1       0.77472410       23.76154255       12.58529857
  564      1      20.27876928       16.71820401        2.15040333
  565      1       7.55278540       11.50567689       12.05253411
  566      1      26.84176289       24.28555719        6.71973941
  567      1      26.71749570       13.12729029       19.74380986
  568      1       0.85221113        2.13729654        7.11787154
  569      1      17.36947150        3.28308294        7.19556899
  570      1      27.41846308       25.00159765       16.05513831
  571      1      20.88150651       22.03538935       25.61624663
  572      1      13.70339282       14.88481665        6.11887119
  573      1      16.91690103       20.35404708       13.50238838
  574      1      25.52750206        0.30536365       17.43652820
  575      1       2.61433510       27.03397201       22.15095593
  576      1       8.88972955       18.80627122       25.47193381
  577      1       6.26948595       24.41718772        2.37615828
  578      1      13.12961012        7.47592845       17.72240023
  579      1      14.55273857       19.62215906       21.86140616
  580      1      15.71126787        8.53140851       21.96006305
  581      1      27.18620668       21.57701921        9.60937611
  582      1      21.22874139       18.76094908       23.74511852
  583      1      23.20362588       23.76894092        4.63197061
  584      1       6.50389275       21.21841893       20.72932729
  585      1      24.44612686       15.96077732       10.12053691
  586      1      20.64137535        6.87197232       24.86105542
  587      1      14.64707363        2.02504978        9.76231013
  588      1      25.87400796        5.79517377       11.16799061
  589      1      13.56444734        9.81373000       15.12346746
  590      1      17.20594841        4.75451484       22.96662765
  591      1      21.35386658       20.22797649        7.37258054
  592      1      18.69306034       16.79832325       12.07956261
  593      1       4.93553039       14.30468397       12.94095550
  594      1      11.07629986       14.74411475        3.11379585
  595      1      20.89695242       20.34142896        3.27925981
  596      1      17.83652436       27.64949405        0.74489294
  597      1      25.36465571       26.81269443        4.66915323
  598      1       0.20788739        4.97189205       17.51977573
  599      1       7.42698858        4.35650833       14.11098647
  600      1       8.90778194        4.43703108       25.07995110
  601      1       7.55383475       14.20687677        3.02610110
  602      1      11.47386740       16.11687247        8.96790268
  603      1      12.04725777        1.88361677       23.65252060
  604      1      17.56438539        4.21064875       25.20397808
  605      1      13.72760715        6.26311653        9.20334486
  606      1       3.56364273       12.23160324       26.50732459
  607      1      17.59424260        1.65051467       12.38585658
  608      1      27.19743439       17.22570745       18.79459196
  609      1      27.61176268       26.67893960       25.08550408
  610      1      16.25219380        6.82779520       15.75577302
  611      1      25.82446441       26.45001332       21.74303032
  612      1       4.49088652       12.71330357       19.41597999
  613      1      19.49634140        9.17483167       16.40439927
  614      1      25.37112064       23.29930975       20.14596749
  615      1      11.53157571       26.54333029        4.79129652
  616      1      18.04222902       10.46569472        9.97383757
  617      1       2.04927220       19.44524138       25.20123869
  618      1      13.67835427       26.14999843       10.17192820
  619      1       9.02330039       20.82063159        7.31862008
  620      1       1.98720037       19.92694177        7.13364453
  621      1      10.68966497       19.86714027       22.16923220
  622      1       6.87177221       22.79513769       16.95671771
  623      1      11.97999078        9.48008060        7.17313930
  624      1       5.79645441        0.94126347       26.70474816
  625      1      16.78923032       15.90862696       13.29514422
  626      1      15.29693540       11.33926328        7.11490463
  627      1      22.65611447        3.91563589        7.80889453
  628      1       5.83914030        4.24674202        9.60415548
  629      1      15.94024786       16.64822884       20.21710331
  630      1      10.61513804       22.03473937       23.38520164
  631      1      16.16771946       17.68475875        2.22411792
  632      1      20.60114689       13.59196886       19.08728294
  633      1      24.37484779        6.39455625        0.75383610
  634      1       0.84432203       14.71588371       16.62874285
  635      1       1.27138159        2.86213002       24.03848114
  636      1      17.87444742       21.98677764       14.90480240
  637      1      16.90295405       26.45060540       26.67104382
  638      1       5.68462182       17.64566214       25.99606425
  639      1       9.07718488        8.83539744        0.12788087
  640      1      23.59015082       22.10158827        1.20148787
  641      1      27.49064295        3.93976622       25.59040120
  642      1      11.02429228        1.20879855        8.91261779
  643      1       9.19722263       15.09549989        4.50108009
  644      1       4.31516542       20.28631355       20.19672018
  645      1       1.38617620        2.69149057       11.16137241
  646      1      14.49547671       27.11580953       21.88151775
  647      1      19.32252454       13.75586622       25.53306093
  648      1      21.32588563       15.77370691       27.46286631
  649      1      12.30925543       15.22785869       24.86834554
  650      1      21.44584520       18.41205080       16.71464057
  651      1      20.12445237        6.53521507       19.06915811
  652      1      26.91193004        9.65178400       11.70776056
  653      1       5.25059633       13.98925490        9.25541490
  654      1      25.30688688       12.05986686       18.19811974
  655      1       8.07916512       20.86155820        3.60921848
  656      1       2.03633627       12.78390230        2.26969481
  657      1      11.97453586       13.03093359        5.94871586
  658      1       6.67485570       16.04120981        1.81937764
  659      1      26.17537074       20.37230484       26.32259134
  660      1       7.84608755       22.68354196       19.06163211
  661      1      16.26227961        7.55871453       26.67755660
  662      1      19.39480818       18.53704120        3.35999977
  663      1       0.93540865       16.23742212        0.75536461
  664      1       1.26021736       25.33913716       14.21696240
  665      1      17.15466450        9.79790926        2.40684580
  666      1      14.94665584       14.53320295       17.56172087
  667      1      12.03632186       12.61331931        3.59854731
  668      1      13.01443730       19.87132090       12.99098541
  669      1      21.14979920        9.09446836       22.09051733
  670      1      20.74332207        4.98337470        8.85270775
  671      1      24.07826917        7.56459669       19.20965050
  672      1       8.58360131       11.75180601        6.81735131
  673      1       7.57155055       13.58464325       15.29009065
  674      1      16.40690355       27.30223179        7.48691169
  675      1       1.55602455       12.79298365       10.22894818
  676      1      25.69174329       11.54201432       10.93071790
  677      1       8.23248239        4.80762550        7.05900386
  678      1      20.40903229        4.71626075       17.59105727
  679      1      10.44979341       18.60350385        0.93358011
  680      1       1.87354020       22.81702972       22.20332211
  681      1       3.38862570        2.47888586       19.77495320
  682      1      12.65404398        8.61494302        5.02105220
  683      1      19.92618531        1.96567368       21.61339257
  684      1      15.32713919       23.83475561        3.77916708
  685      1      23.30434721        9.75896548       15.91480376
  686      1       2.30391862        8.82718974        3.19259075
  687      1      22.45388835       10.16777595        2.58001485
  688      1       4.23301296       12.31118355       24.29574485
  689      1      20.75811151       26.25515798       12.36521417
  690      1       5.28505089        8.60053312       18.87392603
  691      1      16.86944067       15.39966407       18.48818911
  692      1      20.96800043       10.23440219        7.22629497
  693      1      15.62209450        5.29344825       26.21162948
  694      1      18.99057554       17.81964876        5.77325361
  695      1       1.87640715       25.52424213       25.71622104
  696      1      21.35784471        6.53117029        2.16260886
  697      1      23.53637766        8.16214660       27.12637351
  698      1      19.02397189        0.67700452        5.16509545
  699      1      20.98921796       11.79091053        3.65868385
  700      1      23.50191601        8.32876455       21.63858602
  701      1      21.15064808       27.57278463        5.21256886
  702      1      25.05574180        8.74294728        8.74329441
  703      1      10.69451112       23.11144040       21.06792360
  704      1      10.52303278        6.73956359       12.06950797
  705      1      23.14216436       21.52622169       14.97852877
  706      1      19.26954408       15.84658267       22.04161254
  707      1       0.23097138        3.12495225        3.58545801
  708      1      10.77443901       26.76335396       21.40517472
  709      1      14.99360959       19.31432983       14.33580488
  710      1      16.41938904       27.59377840       20.59413011
  711      1      23.31525290        4.46453989       25.61914905
  712      1      14.52100555       17.38907993        0.42901087
  713      1       8.71245569        0.57416487       24.13249032
  714      1       5.55891238       17.60722911       14.45509929
  715      1       2.43853067        6.50334693       19.92481987
  716      1      16.30698170       20.08267774        9.78984612
  717      1      10.17615838       18.97642653        6.29200826
  718      1       1.39419459       27.51947308       13.41332156
  719      1      11.32952940       10.70548514       25.46385531
  720      1      25.57069909       19.59106251       15.96818124
  721      1       2.39708349       20.42587523       18.66671278
  722      1      19.14679465        2.60967339        3.81938821
  723      1       3.72765624       10.09491460       27.35545928
  724      1      24.03273068        4.80439367        4.29695923
  725      1      12.29206755       11.82680765       27.40399614
  726      1      10.07253285       13.37628793       20.25181879
  727      1      23.33618792        8.83675542        4.29490351
  728      1      13.71107407        1.92991128        5.96970290
  729      1      23.42871820        7.29246367        7.92817842
  730      1       0.11408875       16.04273110       24.39377412
  731      1      26.72098158        2.70002953        5.62997551
  732      1       0.38401921       21.20857453       25.19177251
  733      1      26.29383855        4.41262948       19.31197086
  734      1       7.12718849       17.96264939       17.80701852
  735      1       1.47945186       11.54849752        6.00317808
  736      1      19.23850760        2.07417568       14.21033282
  737      1       7.74172883        1.88429072       20.41250972
  738      1      20.97275205       14.34805107        6.47872168
  739      1      12.90231696       11.53996696        7.49058830
  740      1      13.78188713       18.66705335        7.77712859
  741      1      23.18116274       14.52157068        2.87720305
  742      1      19.13625262       11.49674148       15.95607258
  743      1       8.22695419       13.62141611       18.81392885
  744      1      22.93421311        6.79006463       25.25181552
  745      1       7.04453801       21.81417722       24.67288873
  746      1       3.38594919       21.34515060       10.57434744
  747      1       0.95531300        0.52178364       23.53821983
  748      1       6.06310710        8.74315376        2.51163904
  749      1       5.73565943       17.26168876       10.73777526
  750      1      10.00240270       26.22968068        6.53539954
  751      1      18.51440023       19.50924562        9.52885134
  752      1       9.22871364        1.74077451        0.07686656
  753      1      22.66754828        2.59560689       15.76205266
  754      1       3.78054732       20.27936646       23.98830945
  755      1      15.73899593        3.36343176        5.43429249
  756      1       7.13394775       18.84905459        4.40305190
  757      1      23.12336969       17.06239703       27.12822689
  758      1       3.84156582       20.21090344       12.60900161
  759      1      25.61667819        9.63898630       26.46230139
  760      1       8.80728073        8.94915090        9.38141369
  761      1       0.14559445       17.93925878       12.17207613
  762      1       3.24880909       17.08478668       13.83521168
  763      1      10.98699196       19.68202033       14.37944892
  764      1       7.43325788        1.66865418        3.64710065
  765      1       2.60767957       15.02685232        1.96082676
  766      1       3.73729933       17.74479143        4.11277436
  767      1      19.12257365       18.66532139       19.57016779
  768      1      14.58365491       18.11577698       25.87034465
  769      1      18.55431494       23.01391894       20.84811427
  770      1      17.12558157       16.50388849        6.51762256
  771      1      20.71520557        8.83905975       18.42736214
  772      1      24.42745160       13.17940456       16.26576925
  773      1       8.67356856       23.40857026       24.16646782
  774      1      14.03552582        1.90844831       18.61443781
  775      1      20.12305841        2.68648436        1.56081371
  776      1      10.46893751        7.18429015        9.73697118
  777      1      20.61414257        5.54332175       21.13149579
  778      1      15.60857361        2.88376606       12.90565986
  779      1      13.29337942       11.82169454       11.16071925
  780      1      19.45303345        9.08296698        8.74789900
  781      1       7.42067214       26.91239344       16.25041973
  782      1       4.80273231        7.66532443       10.01179105
  783      1      24.51608473       26.79756266        2.54571449
  784      1       3.63596039        6.00027542        0.48652124
  785      1       3.72149778        5.15100046       22.99506877
  786      1      13.59709765       23.58481710       17.64817234
  787      1       7.20055588        6.90772739        6.78520980
  788      1       9.80397591       13.69601087        6.32160893
  789      1       4.97107730        1.97120089       23.28627868
  790      1      27.25426545        2.16550992       20.29813868
  791      1      22.09527857       15.38909241       10.05760409
  792      1      21.53154402       13.49683051        8.67766762
  793      1       6.50773788       12.01875836       23.63472881
  794      1      23.96607475       12.19834599        6.04879545
  795      1       6.15093662       26.25055898       19.25016142
  796      1      27.46421741       25.05764674        2.44175910
  797      1      25.03441907       15.16683424       12.29855441
  798      1      25.73046038       13.68180860       21.92645305
  799      1      15.13674652       25.40740462        2.15390971
  800      1       4.52443060       14.23480624        5.41705136
  801      1      10.11780622        6.23091044       24.03666815
  802      1      10.68494929        7.48716785        4.33243322
  803      1      26.46249646        6.50353588       16.42354825
  804      1      20.06132913       20.86283945       23.67899093
  805      1       9.50305539       22.95248924       12.89105168
  806      1      21.07533441       23.59878468        5.93899076
  807      1       1.82689905        9.23969879       26.48294046
  808      1      10.76083657        3.40548415       17.69584693
  809      1      21.08009022        3.65062875       14.30891947
  810      1      21.00184100       20.09335643       26.96012905
  811      1      27.56594604        6.26775643        4.94494329
  812      1       8.48760560       17.04833778       21.47476625
  813      1      15.87851440        5.96627551        8.21077077
  814      1      16.53904659       11.82721040       26.78059951
  815      1       8.33258900       14.69494282       25.27380359
  816      1       7.59106182       24.71253593       22.55047136
  817      1      26.41655886        7.88362969       24.83753343
  818      1      14.54574128       10.95814526        0.04852265
  819      1      11.67479455        3.03031952       12.15843774
  820      1      10.86041524       12.37053785       14.41951889
  821      1       1.59597472       18.29426741       19.61357434
  822      1      13.78467367       21.02311317        7.65469666
  823      1       0.75630943       11.36563152       19.85619368
  824      1       0.75864773        3.61830283        9.00754731
  825      1      10.30394587       14.71406239        0.90300195
  826      1      27.40778768       23.86961288        8.91913404
  827      1       6.17765000        5.21551053       15.94848142
  828      1       0.86450286        0.90867274        2.97784792
  829      1       5.89724440        5.64626349       22.09317562
  830      1       8.82689961        9.60532235       11.74265208
  831      1      26.64321927       10.91045774        3.45237637
  832      1      19.61765020       11.24712425        5.49885993
  833      1       2.21314452        5.39000449        8.52292994
  834      1      15.52495780        0.01561025       15.22294576
  835      1       4.15388074        0.96090742       21.38740779
  836      1      25.86986536       12.26483314        1.69383333
  837      1       8.38244415       24.62706753        5.69351532
  838      1       2.66042461        4.46058284       21.01923247
  839      1       8.03941853       24.57894980       15.91389345
  840      1      22.03041336       26.72609872       19.80688318
  841      1      22.21707366       23.19187534       21.47117010
  842      1      10.27950275       15.36562083       21.61300947
  843      1       5.23735949       18.80919277        0.41636622
  844      1      12.27979635       10.18336914       20.45618001
  845      1      24.95892111       15.67834839       26.61039366
  846      1      13.28349441       24.80884759       24.94030025
  847      1       2.23500513        0.50559032       11.20545270
  848      1      24.33132315       15.53347107       22.73508079
  849      1       5.92779057       23.23186409       12.75258133
  850      1      19.15099134        7.95728476       12.47568019
  851      1      17.50377684       21.45663557        1.81001618
  852      1      15.66927506        2.41143177       15.21318517
  853      1      16.72478511       10.68824656       24.63981259
  854      1      15.33509912       13.20456074        5.56815743
  855      1      11.68700777        2.34491664       19.61055992
  856      1      11.40746575       22.55977420       17.29463147
  857      1       1.91206963        8.45601397       14.13918894
  858      1      23.19937189        0.78803166       22.87926365
  859      1       6.83964826       21.02191981       15.39448769
  860      1       9.02713767        4.32636338        4.98549618
  861      1      10.46315905       24.36814526       15.96474291
  862      1       3.34499531        5.23614007        6.35158895
  863      1      14.27278888        1.49691931       23.20885550
  864      1      20.21720937       10.24425954       20.28055599
  865      1      18.53415616       12.40750181       13.77860492
  866      1      27.25543366       26.36609995       17.93187505
  867      1       6.80324647        8.18928286        0.32358688
  868      1      11.05788683        5.25744572        4.48878815
  869      1      22.73854178        0.30096468       27.23345089
  870      1      23.44368190       16.99905926       17.37663766
  871      1      20.97649273        4.69682497        0.60345238
  872      1       5.26015317        8.57735342       12.10529405
  873      1      25.02331810       10.07807171       21.29210569
  874      1      13.86109420       16.38227907       16.62482810
  875      1       3.43425845       16.98577508       10.13548391
  876      1       4.41643037       15.18745582       16.69652463
  877      1      21.84926850       13.81756839        0.99854746
  878      1       3.00119635        0.82270050       14.83817000
  879      1       3.13913649        6.59912992        2.80266184
  880      1      26.13768465       27.64458977        9.27089281
  881      1       6.78645628       11.28740023       15.97464887
  882      1      15.10587524       18.44152919        4.20806766
  883      1      22.96399375        9.29432729       18.17196117
  884      1      13.80182602        5.82640685        1.93984186
  885      1       5.27246742       26.29723169       10.83282286
  886      1       2.73665293        7.06416866       24.07001825
  887      1       0.39262686       27.64927511        7.87672627
  888      1       1.97079783       24.53966436        9.14033258
  889      1      18.82350159       17.23540658        9.79661388
  890      1      22.45849676       16.70591745        3.05882741
  891      1       1.51476381       15.51483722       26.30201621
  892      1      12.23747241       16.60657134       21.01481912
  893      1      13.66803433       21.87208274       11.76227172
  894      1      25.88454500       25.76029737        0.62422007
  895      1      12.17696003       27.19164756       27.41246775
  896      1       2.86159176       13.79111892        8.63901231
  897      1      19.56209829       26.05771321       14.55143997
  898      1       2.97557076        8.82146719        9.04853106
  899      1      22.83330587        4.41456626       21.45553413
  900      1      25.25623513       26.59475880       13.33865196
  901      1      17.53537060        7.22826012       22.92930864
  902      1      20.81620772       23.91554529       11.81032557
  903      1      17.16793952       25.90387597       14.41893761
  904      1      26.68025448        5.99353764        0.91960137
  905      1      17.74928298       14.38474642       14.77761304
  906      1      14.25406900        8.75988408       27.01715374
  907      1      17.13901420       26.89177171       18.35707678
  908      1      23.93509556       27.62245617       20.81039720
  909      1       0.63665193        2.80546911       16.75718357
  910      1      11.31492401       26.47972759       16.63992065
  911      1       9.60918544       26.09442317        2.09349068
  912      1      26.77172071        7.82175936       10.14786477
  913      1       6.03924867        2.48253596       10.94341331
  914      1      20.40462850        7.80793646       14.65818181
  915      1      22.07050364       26.46434943       23.58964392
  916      1       6.76470723       11.31605771        5.37565445
  917      1      24.57152803       22.19853228        3.36683493
  918      1      22.19878355       20.21900591        1.32751513
  919      1      26.52696769       10.10077203       17.37518940
  920      1       5.37199997        7.34071695       15.49343257
  921      1      11.30792375       12.09996838       23.53990381
  922      1       8.89517573       20.88221778       13.94609601
  923      1      13.57565697        5.23701069       22.61190682
  924      1      17.52600903        8.51414092       24.94201208
  925      1      17.28067433       24.52419739        5.17357933
  926      1      26.12138102       14.98895647        8.66517768
  927      1       5.76947219       18.78641632       12.46656221
  928      1      11.70059923       27.63198654       14.47337938
  929      1      16.48163634       12.01999608        9.05843537
  930      1      13.65851959        1.26785017       26.74422042
  931      1      17.60583931       19.21452276       17.75702906
  932      1      19.64891622        1.16130215        9.32051583
  933      1       3.52220173       13.04947943       17.26083242
  934      1      20.01708555        4.41192522        5.04074368
  935      1       2.24717163       26.90665392        9.08874895
  936      1      20.97777616       15.75733034       20.13790986
  937      1      15.45087465        7.29339393        3.07206186
  938      1      14.90798020       10.60836813        2.32006010
  939      1      22.41531990       11.95605516       12.96922889
  940      1      14.69642431       11.80350461       14.41291570
  941      1       8.15837113       22.20357613        5.56559192
  942      1      15.70288651       17.17389299       15.15188009
  943      1       5.72182212       21.98404421        5.74280919
  944      1      12.63790058        7.78855032       19.96703949
  945      1      12.24043806        2.14025744        2.35505695
  946      1      26.11310732        4.25060359        9.45311587
  947      1      15.44818727        0.51657637       25.32157251
  948      1      12.49766342        8.26521543        9.17556820
  949      1      15.43336395       22.30259781       18.77593263
  950      1      21.38891154        3.23164015       24.96424218
  951      1      25.25310296       20.72862266        8.53491167
  952      1      10.39857905       21.65796324        9.19909340
  953      1       8.68920389        9.49070502       21.82271278
  954      1      18.01865394        7.48434763        7.46973163
  955      1       9.97967834        2.73801054       10.34067014
  956      1      23.68601686        8.02108919       12.76530889
  957      1      21.03668703       15.20097687       25.18300585
  958      1      13.45995903       21.70448445       27.03609509
  959      1      13.61496480       24.45076190        8.58535638
  960      1      15.18377021       15.95654881        9.73430677
  961      1       9.67516560       13.38482239        9.91200273
  962      1      21.04884518       17.13127187        8.94664606
  963      1      26.95144559        2.38108483       12.22714186
  964      1       6.10447092       27.12631376        6.81568619
  965      1       8.66078584       14.66742669       11.71060145
  966      1       8.01091083       20.87676481       26.56606360
  967      1       7.39588566        8.89495923       15.45313360
  968      1      18.36029080       11.28214639        0.75033803
  969      1       4.52642383        7.49787436       20.75640455
  970      1      11.74366033       13.20091083       18.53687327
  971      1      26.34485042       21.25146540       19.54010915
  972      1       0.34379314        8.05468558        6.47884907
  973      1      18.32906159       11.68466405       23.10882451
  974      1       4.67083753       23.15698330       17.72344352
  975      1      11.24460663       10.03447605       14.65965498
  976      1      25.10037075        1.50792702       24.07608396
  977      1      19.77431733       22.41485302       13.41340824
  978      1      25.92243898       12.30841811       14.72463510
  979      1      17.18381646       27.25821951       11.17905019
  980      1       0.93247000        0.69314805        0.59861877
  981      1      14.16744532       11.59626033       20.73329766
  982      1      23.23335845       25.91213046        7.71685741
  983      1      15.17604904        3.46293835       22.26330827
  984      1      24.21958785       13.49102269       25.83639956
  985      1      12.77203058       17.38187375       18.68291118
  986      1      25.82698264        4.85115153        5.76008149
  987      1      14.86108810        5.76432933       17.36949474
  988      1      11.56294615       19.83254018        4.59984196
  989      1       3.56491384        3.26909761        2.89888450
  990      1       8.62123271       17.31318339        5.50735265
  991      1      25.79813734       13.59259634        6.51887649
  992      1       3.93857223       23.69994675       23.22619696
  993      1      17.58422112       16.96416946       16.76774051
  994      1      13.29915769       25.51576000        6.26579438
  995      1      22.35973155       13.33923061        4.75927446
  996      1      24.53601915       18.55980570       13.88506704
  997      1      19.22216749       25.25506044       20.87858866
  998      1      12.25588030        5.31436852       12.54744556
  999      1      14.31591401        2.17248184        1.08412748
 1000      1      18.06609385        9.65365061        4.70016573
