run_id:  1020  total_energy:   -3027.477237311593

  1000 atoms
  1 atom types
  0.0   27.664  xlo xhi
  0.0   27.664  ylo yhi
  0.0   27.664  zlo zhi

 Atoms

    1      1       0.08330212       18.68667780        6.71776637
    2      1      14.70580397       18.60336255       19.58358788
    3      1      19.85639682       15.22483951       15.85734875
    4      1      17.42573997        8.36313439       17.17552074
    5      1      12.81910954       12.82778520       13.24046904
    6      1       8.88019761       16.64654312        0.74597781
    7      1      13.87947809       23.99521599       27.00436452
    8      1      24.73039355       22.67320103       12.34074117
    9      1       0.64215475       26.00921734        6.25284278
   10      1      26.78963251       27.53338998       27.10265738
   11      1      26.28342664       24.02463651       26.53485575
   12      1      24.70913357       12.77845499       12.54781095
   13      1      11.74066496       16.39523534       11.40220372
   14      1       8.76806542        2.84262588       23.42546912
   15      1      22.31010847       12.25133818       22.80382818
   16      1      16.01908143       21.59815362        8.02158702
   17      1      22.73727646       17.42640150        5.21439886
   18      1       5.59184894        9.48455200       26.41315975
   19      1      24.92988885       10.32654914        5.02240154
   20      1       8.76055699       12.94718337        1.26959808
   21      1      25.68023341       18.06697085        1.75223819
   22      1       2.99197266       23.61928230        7.23154328
   23      1       4.97984808        2.29706846       18.01844876
   24      1      10.44293901       14.39578077       23.83243041
   25      1       0.46411415       14.90600990       19.13105418
   26      1      27.43404308        9.47854024       21.23809641
   27      1      12.93181982       18.18703154        3.63390094
   28      1      22.33043048       19.06116676        9.28644708
   29      1      17.67476269        3.24952988       15.58149910
   30      1      27.33223146       22.36616558        5.63979105
   31      1       4.76266141       21.77122646       14.25481558
   32      1      16.70692420       18.85173091       22.82556183
   33      1      16.95655327        2.92282334        3.36432454
   34      1       9.65952816       16.73700129       12.34767345
   35      1       8.22446817        6.09472507       12.56790687
   36      1      15.77754896       27.18869365        3.62713939
   37      1      10.64890243        6.60527048       20.13470500
   38      1       7.06371227       26.92730551       23.04924179
   39      1      21.82861576        2.83463092       18.14160576
   40      1      10.71937089        0.54712366        1.31932009
   41      1      10.82268350        7.16585533        0.00673542
   42      1      10.56062608       25.34382696        8.69926123
   43      1       4.31623271        0.77213460       11.54910030
   44      1       8.94224080       18.79126436       23.15189546
   45      1       1.35998443       13.18390103       26.40192483
   46      1      23.79849117       11.05941061       19.46019836
   47      1      14.35897394        7.68234218       14.49450258
   48      1       6.63054084        5.05329249       25.77878344
   49      1      15.00287099       20.39766722       25.91406812
   50      1       9.76073635        4.83003632        9.00587145
   51      1       1.44244276       18.45412577        1.07231776
   52      1       7.36693826        2.46756868        1.32907089
   53      1      24.53403289       19.94101859       22.67659998
   54      1       0.17709648       21.39209710       13.38326543
   55      1       6.83622862       21.93201019       11.08855226
   56      1       4.63958796       24.46896744       19.59929812
   57      1       1.94500881       18.77613403        3.33633203
   58      1       5.76330014       11.74647646        9.34487854
   59      1      27.16153010       11.75157431        7.30234590
   60      1      23.34778746        4.40459892        0.20446347
   61      1       2.37954718        3.09004129       15.36834040
   62      1      18.79323786        0.72359405       23.32321574
   63      1       8.13415819       11.68552572        9.30129666
   64      1       5.37233978       27.55846978       17.40714228
   65      1      20.46954939       21.77687940       21.55049100
   66      1       7.06596836        5.25879164        3.65898845
   67      1      15.97420212       13.22281135       15.94356487
   68      1      24.44544582        7.23384332       23.54576212
   69      1       0.18909045       12.31914941       24.59044298
   70      1       7.16001543        2.98037226       18.48359895
   71      1      10.40074901       17.39210241       14.62171681
   72      1      13.75342767        9.73306667       17.35891284
   73      1      13.32454975       21.10944895        1.56398321
   74      1      24.61017862        3.62212455       15.56313029
   75      1      26.28710025        1.91640314       16.01423392
   76      1       2.59179359       10.68005317       10.68720696
   77      1       2.60407046       23.47042257       11.19575232
   78      1       7.65227028       19.99196361       12.18535933
   79      1       3.88951595       16.77965948        7.72729138
   80      1      23.72571221       26.55010089       16.56607745
   81      1       6.99465273        7.54136709        9.06439431
   82      1      18.81181355        4.00688749       21.37209658
   83      1      11.06158295       18.98868703       26.25019015
   84      1      14.77404719       27.39528716        5.83816340
   85      1       0.71161537       21.98764295       18.53369967
   86      1       5.71292203       17.91499564        2.74225599
   87      1      26.83824077       25.12755218       19.90866613
   88      1       9.57329875       14.99754948        8.26251271
   89      1      25.29132977        3.78962943       24.49474993
   90      1      24.26552086        5.99166961       16.11312232
   91      1      11.77938934        4.50067518        2.44646795
   92      1      25.66671483        8.52197037       13.24760539
   93      1      19.94917535        0.44925561       15.66104990
   94      1      16.12918293       10.27454238       20.33905294
   95      1      22.83272855       14.25286883       24.03291455
   96      1      17.75833400       20.83380060       23.70897022
   97      1      10.13878926       19.79657221       19.79698528
   98      1      12.97640464        9.47040215       11.24139561
   99      1      25.68395825        9.97443393       15.16989334
  100      1      27.53586929        6.23705616       26.28923181
  101      1      22.70357754       11.63477290        7.95423355
  102      1      15.03867576       26.04474399       24.00730213
  103      1       9.00024460       14.70496304       16.85726692
  104      1      18.98746191       22.91423569        5.05043669
  105      1      17.93776150       26.50874739        4.12972972
  106      1       2.91288169       25.45919612        5.85014206
  107      1       9.68795990       10.03495544       18.14488990
  108      1      11.20651430        5.36090092       22.14281862
  109      1      23.83772445        1.40789642        2.57411160
  110      1      16.06119847       24.52597556        0.01093936
  111      1      13.87793002       13.64589798       19.47194280
  112      1       1.79074225       15.64375786        7.42006016
  113      1      11.09255692        6.93126724       16.53853445
  114      1      12.89204631        7.75324156        0.97540818
  115      1      23.93992195       24.25771037        9.54846353
  116      1      17.19614171       14.61499723        5.19828315
  117      1      19.84783612        4.87662096       25.93349813
  118      1       8.63523280        2.37920475       14.74406530
  119      1      18.92103976       19.00215262       13.00029007
  120      1       8.87490980        2.12266132       17.08169910
  121      1      12.54710082        5.89480138       14.83450285
  122      1      18.14923014       15.17574851       27.05204494
  123      1      26.91481387       14.24964327        4.54392664
  124      1       5.81633773       19.23764204       16.48486431
  125      1      14.48957301        6.81483194       21.04874323
  126      1       2.67089198       12.36239118       20.95379564
  127      1      19.62515197        6.30259401        3.69661351
  128      1      11.13104921       13.94571199       16.27023667
  129      1      20.91600462       16.68599797        6.54320748
  130      1      14.96578141       22.22719166       20.94908531
  131      1       5.10090498       11.02345093        7.11925729
  132      1      14.91497520       17.23400197        6.22052378
  133      1      25.02453661       25.17608721       15.08203085
  134      1      16.88378603       22.75509886       22.47793648
  135      1       5.23000069       23.17525069        7.66671063
  136      1       6.09388301       20.97317714        0.35712960
  137      1       9.49730002        2.03211900        4.99698183
  138      1       3.05869705       19.41806363       27.33112978
  139      1       6.24028602       14.98269951       11.25076455
  140      1      13.03912821       15.83468088        3.84802833
  141      1       9.60780464       24.49257484       26.13237977
  142      1      26.62909140        0.87927150       13.92375583
  143      1       9.18342569        9.70101849       25.60738698
  144      1       3.88856045        9.05972947        6.86591283
  145      1      16.93602548       23.49482318       11.04770214
  146      1      21.58948958        8.57908317        0.99364990
  147      1       1.86377739       21.83877891        5.98371518
  148      1      11.39562860       26.89547939       10.28426734
  149      1      13.71912950        1.84253044       12.01062415
  150      1       7.32731981        1.19117872        7.93485242
  151      1       0.18397612       12.15278610        0.49768364
  152      1      27.64700114        9.14464828        2.39007950
  153      1      15.46483015       20.63809588        4.76676371
  154      1       7.80081369       25.64678564        3.67649689
  155      1      14.10546516       14.40463941       23.37374512
  156      1      24.80694018       17.61661699       19.24344050
  157      1       2.12083192       24.88095767        1.73024525
  158      1       8.81915027        8.26862605        5.51998389
  159      1       1.20099095       14.08208587       12.29834523
  160      1       2.10668041        6.94934152       26.38620536
  161      1       4.25365757       20.61299773       17.91391568
  162      1       5.55082624       16.37001164       18.48715113
  163      1       4.97598846        1.16751884       13.82579698
  164      1       0.63579733        6.37111935       14.36852410
  165      1      13.34675942       14.87009659        8.56901518
  166      1      19.45133380       23.59029594       26.72179114
  167      1       5.81556357       15.21336914       14.89643419
  168      1      11.05512081       18.63986309       17.93320292
  169      1      14.65124106       18.28271884        9.86630020
  170      1      26.57691307        7.21720683        3.00338526
  171      1      11.51908644       24.52506192        2.79084841
  172      1      20.61768440       15.34362227       12.05473261
  173      1       7.32555016       17.92994371        9.30623360
  174      1       1.78041710       14.49268453       21.33402278
  175      1      16.33829597        9.18037844        6.28384224
  176      1       2.28676997       21.08363463        3.71964325
  177      1      18.09246950       13.57542465        8.53395759
  178      1      25.74915644       23.31725791       22.59369708
  179      1      11.51179448       18.24508458        8.06552666
  180      1      25.59963955       18.02240952        4.03064807
  181      1       8.25164721       25.23518530       19.01342639
  182      1      22.66140948       20.99317804       18.72860521
  183      1      15.41808267       21.76748094        2.76931634
  184      1      21.17931406       26.86821827        2.96655995
  185      1      24.94971196        1.48530202       19.43828436
  186      1      21.86083549        8.34924695        6.08502199
  187      1       0.87055636       23.33823958       26.27166824
  188      1      12.59873927       18.45286075       22.55049288
  189      1      17.47272341       22.60380000       27.41831942
  190      1      14.92164250        5.52087952        6.10842482
  191      1      14.15791139       25.59299229       12.41149597
  192      1      10.80305413        3.09793118       22.02694561
  193      1      25.77079393       25.25654050       24.08787989
  194      1      21.84344483        0.96300289        1.61750128
  195      1      10.26460576        3.56980460       26.76051949
  196      1      18.05204846       24.73412619       17.53129060
  197      1      21.36066371       20.61231400       16.91244574
  198      1      16.41640654       25.40490365       12.37713899
  199      1       3.32601753       26.88807340       16.43070239
  200      1       1.27494722       17.92606604       10.18464221
  201      1       4.07542766       15.85314900       26.27525357
  202      1      16.05284016        5.83173100       19.41264616
  203      1      21.91184597       20.44961850       11.20773282
  204      1       3.77073894       24.86431793        3.52101986
  205      1      18.30045101        5.71275615       12.36357489
  206      1       9.26365711       10.60665349        1.88142734
  207      1      26.81489519        5.52247878       21.34300781
  208      1      26.39615239        7.97168129       18.31589190
  209      1      24.93121869        4.17284646       13.34697445
  210      1      12.94977336        8.99950365       25.09446544
  211      1       4.72688466        9.29944429       22.40477426
  212      1      24.82509523       22.19149141       26.75601472
  213      1       0.22786993       17.79616349        4.64677980
  214      1      23.21578937       16.70878428       20.93277260
  215      1      13.16613609       25.93125074       18.14623605
  216      1      14.17238743       15.30439480       21.16013672
  217      1      26.30236285       15.94031012        0.95674968
  218      1       4.89953034        3.24168258       26.45345939
  219      1       3.83919999       18.56166902        6.28124616
  220      1      20.50218543       10.73336207       23.76587884
  221      1       9.91890080       22.36800804       27.25866025
  222      1      11.38426904       26.01674283       25.49398369
  223      1       1.09790047       12.19871068       13.75199668
  224      1       9.77718230        8.87976914       16.12283143
  225      1      17.25897748        3.80948146       19.60941138
  226      1      16.54137305       11.42409406       12.90931849
  227      1      25.50538079       14.40450738        2.56531704
  228      1       6.15572337        6.08886876        0.18032848
  229      1      13.67417150       12.09086817       22.97653008
  230      1      26.74522358       20.20844413       21.60879975
  231      1       7.60920531        5.61825857       10.29195540
  232      1      22.44020433       19.79707395       13.48804374
  233      1       5.37771156       11.46187169        2.27983584
  234      1       1.15141070       19.03471013       21.63660553
  235      1      21.38406735       16.08795512       14.09410340
  236      1       1.75202457       27.04059293       18.23588840
  237      1      17.06181930       24.93153678       23.61855812
  238      1      20.09471996       24.02171493        1.30177463
  239      1      14.20528151        6.09823979       11.46275750
  240      1      22.26649743       25.20220939       17.91478325
  241      1      14.68371809        9.98790786       23.66706417
  242      1      19.50168742        7.83009392        5.37215233
  243      1       5.43842909       18.67906431       23.75877052
  244      1      24.87819720        2.74103323        0.88233195
  245      1      12.16442299       12.84191155        9.42729272
  246      1       6.85576895       24.97259416        7.51636843
  247      1      18.98484767        5.05302450        7.11113406
  248      1      12.14742403        3.66770379       15.85335379
  249      1      22.42567383        9.89769075       11.51431213
  250      1       1.38038371       18.86128812       16.10553336
  251      1      16.09808102       14.17709186       26.57383081
  252      1       3.03761854        1.19580323        3.79155373
  253      1       5.42257821       12.90790264        0.27357062
  254      1       5.73974820       23.47193600       21.52690646
  255      1      11.84202234        6.85930329       25.48430253
  256      1       1.02389235       15.67636565        5.15389013
  257      1      24.44455878        0.28146124        7.80553093
  258      1      24.61296898        5.15603237        7.66484852
  259      1      15.45181328       27.56184121        9.60953504
  260      1      23.41601922       18.15730240        1.41949821
  261      1      21.18922686       19.96565592       20.29485535
  262      1      25.56313479       16.72223495       24.53961121
  263      1      24.93187465        1.24255502       26.64250667
  264      1      19.96109481       16.91098403       24.06355564
  265      1      12.84588384       18.73874397        1.44653456
  266      1      17.50794006       21.22949833        6.13490252
  267      1       7.37950487       26.66928597       10.77006905
  268      1       9.34853363       24.98837417       21.06240474
  269      1       6.91948001       19.91843225        8.21987317
  270      1       5.43728614       21.49127763        9.33684266
  271      1      16.39956494        3.65103331        9.48178137
  272      1       4.83521824       10.94232811       11.67234416
  273      1      21.82845296       12.02463525       20.38547002
  274      1      15.96350624       21.48380397       11.69014431
  275      1      27.56392010        9.83140153        0.09497828
  276      1      22.25973370        3.88561312        5.33593973
  277      1      17.91116067        7.24855829       19.15425064
  278      1       4.89745771       17.16059961       21.98298019
  279      1       8.86524983       22.95988762       10.56400855
  280      1      20.25343573       24.77722372       16.39890730
  281      1       9.70427861        9.62828870        7.19422503
  282      1      26.77045928        0.82817842       22.35486478
  283      1       2.08222263        5.08407936        4.22473663
  284      1      20.92311137        1.12528504       26.04108342
  285      1       2.66736559        5.86046557       17.72340639
  286      1      22.76129868        7.74538845       14.85223841
  287      1      15.49794675       12.62139081       11.15346631
  288      1       4.42311474       14.69549178       24.27543318
  289      1       1.42785878       10.33282701       24.29516375
  290      1      21.43986117       25.38059859       21.60738290
  291      1      10.40429480       11.25374796       21.55810456
  292      1       4.11985695        4.09932030       16.68516651
  293      1       2.89634320       20.63591772       21.73804520
  294      1      23.48339355       25.69669073       27.19851467
  295      1      20.68520181        1.04508651       19.44762753
  296      1       0.11722557       14.11764639       23.02338735
  297      1      17.89033574       17.57585123       21.23314032
  298      1      14.31773691       15.05275809        0.24311529
  299      1       0.55506019        8.45018778       23.34013177
  300      1       4.79777440       27.10130763        0.61505403
  301      1      19.48110885       25.40206620        8.44315042
  302      1      14.69025176       14.68315401        2.49329521
  303      1       7.27121271       11.05512043       25.64523092
  304      1      17.24719048        4.34668471        1.56156449
  305      1      19.97499050        7.18143390       22.59863735
  306      1      16.79817555       23.88179346       15.62438872
  307      1       3.20639688       10.72972531        1.99761071
  308      1       1.64827101       20.13830498        9.45646749
  309      1       9.45037569        0.84458113        7.08746826
  310      1      25.06648373        1.07506713        5.71428708
  311      1      20.18106839       16.94625025       18.18382282
  312      1       0.99736716        3.01031031       27.63069034
  313      1       3.13811218       10.99331105       22.82686931
  314      1      23.80153899       22.18562943       22.99654084
  315      1       1.37111555        1.63459681       18.83428975
  316      1      14.86194538       27.49684660       17.59451428
  317      1      13.24622428       21.43561705        5.44644597
  318      1      25.64559709       18.81810536       11.92552012
  319      1      24.60675417       18.38922809        9.75548110
  320      1       4.17465310       24.77135831       12.37361528
  321      1       7.71236507       24.35507686       13.64197277
  322      1      12.55387949       17.66483056       24.84854483
  323      1       2.02937207        9.39322395        5.50172927
  324      1      20.28499011       13.01846039       12.26029580
  325      1       9.90038558        0.72734999       19.96124764
  326      1      24.08366279       22.56705021        7.96201160
  327      1       8.25639114       26.48151118       12.84651222
  328      1      23.36595905        6.15115789       11.35148546
  329      1      14.84134935        7.67882464        5.23199482
  330      1      21.77681380       22.35183634        7.61366502
  331      1      23.77566730       16.22854212       13.93038105
  332      1       3.81347844        5.21066013       12.62311976
  333      1      22.59757458       18.79110252       21.81018160
  334      1       0.68415089        3.78912566       21.94233459
  335      1      10.97365611        2.24568209       14.28363150
  336      1      26.27916941       20.98673775       11.76347722
  337      1      19.59272594       20.43060198       11.20689141
  338      1      24.85179943        5.18680107       22.63328167
  339      1      19.98756975        4.40216448       11.09790937
  340      1      19.08122254       19.72588197        7.12025596
  341      1       8.74525952       13.07250222       13.43867471
  342      1      11.52695732       11.06560636        1.92879586
  343      1      18.74406291       19.18932183       27.05368858
  344      1      27.03493792       15.71448721       15.41403824
  345      1       3.55072079       25.85417795       23.98643698
  346      1      10.09051925       22.00610341       19.16076461
  347      1      23.99710640       10.93471394        0.80398891
  348      1      13.47586979        5.13575948       25.09130965
  349      1      26.30089619        6.21556210       13.12463847
  350      1      26.20922372        9.62880630        6.81564752
  351      1      18.22636906        1.09897868        7.30777411
  352      1      26.88297492       22.89967153        3.35107725
  353      1       8.10168218        0.32240605       26.43251923
  354      1      12.92746737        2.29198645        8.28403413
  355      1      19.75680486        8.98826657       25.44300345
  356      1      16.12787885       14.92509010       24.32375893
  357      1      19.72572210       12.45066129       10.01339227
  358      1      18.22553296       13.28844021       19.15799893
  359      1      22.65078614       18.82162650       25.62657222
  360      1      26.16005628       24.28323108       10.97282776
  361      1      15.12012416        4.37554537        0.66515490
  362      1      12.36836938        3.04951005       25.71596440
  363      1      10.18591150       20.40733180        2.75337048
  364      1      26.10099160       26.50537450       11.30365997
  365      1      16.18804152        1.13914648        2.10363831
  366      1      18.95662350        0.78007021       17.84889503
  367      1       6.62467113        6.78408757       24.07816758
  368      1       6.66664295       15.71242323       21.70296868
  369      1       8.39019711       25.89861859       27.57694269
  370      1      15.57354772       20.09347260       18.02365414
  371      1      10.84198642       27.50121865       23.71154514
  372      1      26.96975164        3.74325141        1.46059987
  373      1      23.14551590        5.88238635       18.19647214
  374      1      14.41647525       12.62241820        3.46698048
  375      1      16.84433123       15.49341464        2.97265280
  376      1       6.22660424       14.50076038       19.73031438
  377      1      26.19321736       20.42349117        6.38687038
  378      1       9.06436101        8.38018335       19.80161723
  379      1       4.04936026        7.38475249       13.59338241
  380      1      27.03678939       12.79339861        9.45044618
  381      1      24.75156864       19.92475477       18.39221426
  382      1      12.71442271       22.31787372        9.45943211
  383      1      13.03467854       23.69792973       21.28758446
  384      1      23.84902935       10.52327926        9.69486809
  385      1      18.15021104       11.38409728       20.75426578
  386      1      14.29327058       20.61790629       16.10298919
  387      1       5.83979906       19.67097773        6.18340511
  388      1      27.11754488       19.73147494        0.82660224
  389      1       4.16257146       17.77797020       19.88069635
  390      1       1.21710643       10.92682534       17.58684247
  391      1      11.12938307       22.30069985        1.74654881
  392      1       1.61437697       17.64192074       23.52016778
  393      1       3.74939840       27.27531056        7.17753814
  394      1      26.44369613       21.51234376       15.29452273
  395      1       7.30714056        0.45169000       14.27306322
  396      1       4.55084751       27.19996689        3.06839594
  397      1       5.49648229        3.52905631       13.13442710
  398      1       5.64594350       15.26364792        7.28670577
  399      1       6.30229081        0.04845964       20.92945197
  400      1      27.08683906       17.78765543       16.55811176
  401      1       8.94817758       18.49771274       10.92603947
  402      1       7.81756878        1.29744928       10.24671659
  403      1       1.80241844        4.38719481       13.43561768
  404      1       5.68348927        3.41324420        4.08782101
  405      1       7.42704185        8.27569599       13.02565438
  406      1       1.05626330        7.54349674        8.58297689
  407      1       2.72393654        9.64752741       16.13709122
  408      1      25.22317529        2.26494844       10.51099701
  409      1      19.23059348       26.69888857       10.46245536
  410      1      18.43941901        2.72325278       10.58608630
  411      1       7.57287053        5.38826408       17.94254504
  412      1      18.33684294       17.23081046       25.80774571
  413      1      11.86469388       10.89948304       18.33359662
  414      1       6.16692588       25.20822125        0.25184610
  415      1      14.51069388       21.29624235       23.85080786
  416      1       3.02986608       15.53772662       12.33971594
  417      1      12.25120911       14.25411880       27.11214944
  418      1      21.76553141        1.05153013        9.87389908
  419      1      22.73239298        0.02545927       13.02964033
  420      1      10.61688929       26.44454638       12.67841749
  421      1       6.61745756       10.54704166       21.77805300
  422      1       0.51285201       12.39366708        4.05927505
  423      1       7.96861792        9.81208249        3.90904606
  424      1      20.28147832       23.36287855        9.17353842
  425      1      20.64197788        8.46817370       10.62164958
  426      1      22.43479610       24.12400113        0.99917450
  427      1      17.27367139       20.77312263       26.01174374
  428      1      12.72833039       18.52946011       11.21345821
  429      1       3.20244350       25.10032442       14.69416270
  430      1       6.04480456       12.88513711        4.06708041
  431      1       7.56825056       13.00727786       26.90483437
  432      1      24.52559565       22.82807212       14.67259413
  433      1      22.60330995       22.81306056       11.20319211
  434      1       3.57361712        3.32854456       24.44220565
  435      1       0.56783956       22.82095133       16.36301845
  436      1      21.26133489       25.81278164        6.82044688
  437      1       8.33446208       24.98894816        9.41729513
  438      1      15.99762560       23.77887269        8.82796724
  439      1      12.98799471       25.40020774        1.13936282
  440      1      20.79165654       13.11166646       16.64269312
  441      1       3.87299037        7.93134882       17.17848445
  442      1      17.32290117       25.14696394        7.47797723
  443      1      17.28399814       15.78495783        8.70233535
  444      1      10.10948338        5.10362525        0.87200300
  445      1      15.22710372       14.93192957       11.84054994
  446      1      11.02308127        9.09071647       12.56734200
  447      1       4.38515630       22.29950755        3.81685622
  448      1       4.95083531        7.10522167        6.03215396
  449      1      24.90780991       19.01529747       24.80661862
  450      1       6.46356874       27.39435613        4.40584688
  451      1       9.38329442       27.39598032       17.75546351
  452      1      27.64598509       26.67660991        4.10710507
  453      1      19.60834029        9.30987459        0.03959335
  454      1       1.98387949       22.85616615        0.57467997
  455      1       5.93076643       10.85698882       19.51584147
  456      1       0.61508402       21.59248143        2.03616536
  457      1      17.33597417       11.97296790       17.31686154
  458      1      11.13892790       24.31516890       13.72134136
  459      1       4.75044939       15.00955479        0.73339723
  460      1      22.18440051        4.08522002       12.26774429
  461      1      20.11504938        5.56932996       15.41922219
  462      1      19.78639943       12.88618584        1.82942184
  463      1       4.29056437       11.46318481       15.71963036
  464      1       5.28471561       27.53074820       24.51783437
  465      1      13.08105743       15.12542968       12.93636441
  466      1      23.15391335       22.77242853       25.13825970
  467      1      17.07648050        9.29388916       11.95467156
  468      1      24.65185358       20.15782590        4.64825634
  469      1      21.84868096        2.63525047       22.71002764
  470      1       7.75446518       16.38367923        7.59147310
  471      1       5.36635430        7.11173759        3.70670183
  472      1      25.61510503       11.69742375       25.04345881
  473      1      22.94285210        1.67586333        4.81827753
  474      1      22.61043270       12.01137134       15.37615595
  475      1      27.58808381       21.93808651       22.98428028
  476      1      11.45116219       21.27433379       25.90178155
  477      1      15.69347209        2.27980839       20.28118862
  478      1       7.72070919       11.44881869       18.12824297
  479      1      22.73924116       12.33481926       27.16021966
  480      1      11.83131720        1.28588414        4.55177632
  481      1      12.20266629        4.59137123        8.38113114
  482      1      22.37805545       19.73050735        5.13863071
  483      1      14.54053903       23.01616522       15.52467939
  484      1       6.74763536       14.44274752       23.62378892
  485      1      17.90425880       19.17381198        1.63094374
  486      1      18.69657777       14.99201375        1.69350572
  487      1      24.73867854       24.99094697        6.01290258
  488      1      19.47347391       22.25767513        2.86840447
  489      1      16.12183228        4.84651601       11.68466732
  490      1       9.29320005       17.15668956       16.83641712
  491      1      12.20185016       15.80005297       15.12904660
  492      1      11.91894798       20.35843447       16.46188840
  493      1      27.21803117       15.68322375       12.99321364
  494      1       3.10447650       23.00273993       15.69483802
  495      1      19.14064207       26.12153215        2.13415785
  496      1      17.89617425       22.73071400       18.66766964
  497      1       0.07260510       16.87089015        8.40749470
  498      1      23.51405249       25.11303801       24.94882635
  499      1      20.18089093       27.11460152       24.65783578
  500      1      24.74509955       15.39878267       15.85347532
  501      1      18.85450452       13.35540379        6.29707628
  502      1       6.40868163       21.99235417        2.39998158
  503      1      18.17983495       14.05737386       23.43141963
  504      1       1.62473603       19.33969798       13.62344381
  505      1      22.32659515        0.40974636       15.33597506
  506      1      17.87917661        5.40217777       14.74258089
  507      1      16.06579087       10.07081575       17.99013660
  508      1      21.95564399        6.78664862        9.59754284
  509      1      12.95192310        9.37326957        2.68385922
  510      1      13.75945816       27.58476379       13.58394774
  511      1       3.06646777       15.45018610        4.09646449
  512      1       2.51308500       16.45476283       16.25398072
  513      1       8.68023944        8.10083893       23.84000106
  514      1       7.96137231       16.83625501       26.25782554
  515      1      17.86379670       26.60254740       22.14786519
  516      1      12.70881435        4.74377704        6.10984171
  517      1      13.21132046       23.72738994        4.68485774
  518      1       7.10855590       20.18056923       22.99635079
  519      1       1.23772373       10.10787126       12.53741813
  520      1       9.98631549        5.53384915       18.08649382
  521      1      18.63150548       25.43270497       25.41469888
  522      1      22.63199574        1.66811371        7.97283188
  523      1       3.91561217        5.55295320       10.21665419
  524      1       3.13909008       15.93669682       22.73154775
  525      1       3.79580264       12.18735533       13.52003766
  526      1      16.35248633       17.29275919       24.59865903
  527      1       2.54158257       26.56879010        0.11497565
  528      1      12.87134526       25.99583068       20.60623670
  529      1      20.84851609       18.35839644       14.37594563
  530      1       3.93920164       21.78851414       27.18722876
  531      1       4.64980855        3.37086224        6.19555528
  532      1      14.80090238        8.23862296       12.21460843
  533      1       7.32621322        7.77042496       18.19274243
  534      1       6.46655099        3.35799093        7.61017662
  535      1       4.89076956        8.23380539       24.46283504
  536      1      14.24498993        3.47754665       16.84297480
  537      1       3.26413857        3.76179507        0.52777358
  538      1      23.81711139        6.82330030        3.05108948
  539      1      18.97293006       21.17745938       17.08414390
  540      1      20.48734890       23.05567036       14.64936603
  541      1      23.66920492        3.79261324       19.38953445
  542      1       1.20150362       23.82837244       20.11602973
  543      1      12.91120382       23.01182208       23.59697523
  544      1      13.35976704       23.61678184       13.43435806
  545      1       2.60911774       25.67296027       20.00996490
  546      1       3.03831622        1.60913604        6.15898625
  547      1      24.69789963       11.75909455       22.84823339
  548      1       7.97407440       18.93007927       19.90836945
  549      1      10.85632158       19.44668414        9.97779780
  550      1       4.69216452       22.19081593       24.88392083
  551      1       3.40257754       12.60748853        6.72985974
  552      1      23.03735852        1.97508523       11.57648874
  553      1      17.61760507        6.36872070        2.49558728
  554      1      18.43069828        3.10580347       17.74541374
  555      1      17.56528101        1.82518900       25.21251399
  556      1       6.77709923        3.24436825       22.27595107
  557      1      19.00222843        1.64124715       27.31690723
  558      1      17.76492976        7.95276417        0.78928721
  559      1      23.14580191       23.26091624       19.27111256
  560      1      22.86826187       25.32487057        2.86280538
  561      1       0.16411006        7.41032795       20.16395480
  562      1       7.72233032        4.82828937        1.47689278
  563      1       0.59887101       23.64349773       12.45062139
  564      1      20.28485501       16.72995636        2.10998718
  565      1       7.50158933       11.53009949       12.12985496
  566      1      26.83152993       24.22273196        6.86700934
  567      1      26.76034602       13.09136006       19.77141129
  568      1       0.88234564        2.16471097        7.20743296
  569      1      17.36673803        3.25415193        7.21205359
  570      1      27.25141948       24.97339757       15.92799353
  571      1      20.92429867       22.04639738       25.60898316
  572      1      13.70852854       14.89720929        6.13116683
  573      1      17.06915415       20.48047522       13.58735755
  574      1      25.48714509        0.26161910       17.49823498
  575      1       2.61205917       26.98288689       22.12452233
  576      1       8.92840417       18.80779627       25.51974765
  577      1       6.27048930       24.42997577        2.40773111
  578      1      13.12888158        7.49330998       17.73640890
  579      1      14.60966669       19.65156161       21.84284540
  580      1      15.72467499        8.55316066       21.96114652
  581      1      27.24984984       21.33086241        9.64522778
  582      1      21.26564124       18.77327169       23.73421416
  583      1      23.33260491       23.79151810        4.54648811
  584      1       6.66976627       21.07106664       20.77578940
  585      1      24.42377853       15.90961190       10.07536204
  586      1      20.63335231        6.86995268       24.84680829
  587      1      14.63794857        2.01917115        9.79221061
  588      1      25.76195613        6.08748470       10.76681262
  589      1      13.55758552        9.82728446       15.13726820
  590      1      17.20645598        4.76329775       22.98325673
  591      1      21.42548358       20.15405755        7.27032986
  592      1      18.65361315       16.81183732       12.06482957
  593      1       4.81863248       14.29826953       13.02532233
  594      1      11.11947489       14.75934221        3.13545960
  595      1      20.93993303       20.32792342        3.24295374
  596      1      17.86033151       27.64412826        0.76044194
  597      1      25.46399773       26.78777571        4.62088211
  598      1       0.24536190        4.97846380       17.67690438
  599      1       7.41373711        4.37684359       14.14224997
  600      1       8.90159577        4.44863901       25.10708451
  601      1       7.66042160       14.19202786        3.06347194
  602      1      11.46706261       16.13499077        8.99541035
  603      1      12.03458235        1.88979083       23.67686704
  604      1      17.56481076        4.20939747       25.21616548
  605      1      13.72799436        6.24884345        9.22692103
  606      1       3.58303642       12.26834688       26.51551854
  607      1      17.55841238        1.65560729       12.44115010
  608      1      27.23072572       17.10330742       18.86703220
  609      1      27.65876892       26.66032970       25.08757009
  610      1      16.24926286        6.85587873       15.77535644
  611      1      25.85745208       26.42213258       21.71478493
  612      1       4.47520016       12.72830352       19.43382452
  613      1      19.51275489        9.19078711       16.41853049
  614      1      25.39756626       23.29267962       20.12474201
  615      1      11.52222185       26.53161644        4.84301150
  616      1      17.98015525       10.46451530        9.95755387
  617      1       2.09393387       19.45476330       25.12707994
  618      1      13.62323944       26.15002879       10.19613509
  619      1       8.99557251       20.81354670        7.35387126
  620      1       2.03261767       19.85889332        7.13796890
  621      1      10.74599631       19.87884141       22.19414409
  622      1       6.84759603       22.83595090       16.95628481
  623      1      12.02047444        9.47385437        7.20986062
  624      1       5.79486352        0.95155153       26.70690346
  625      1      16.78493584       15.91004531       13.30004283
  626      1      15.29047939       11.34493018        7.10496172
  627      1      22.58769506        3.95097452        7.63053812
  628      1       5.80074853        4.28194531        9.63836428
  629      1      15.99920094       16.66561545       20.20583054
  630      1      10.66291051       22.03874365       23.41696827
  631      1      16.17973625       17.71353347        2.22948458
  632      1      20.64251821       13.58904213       19.06372118
  633      1      24.36363747        6.39730145        0.70466505
  634      1       1.11810841       14.49952021       16.84450711
  635      1       1.28993839        2.83862249       24.05819581
  636      1      18.25207611       22.09483527       15.00487064
  637      1      16.92355106       26.45266435       26.68468783
  638      1       5.70470105       17.61279436       26.01750687
  639      1       9.10148850        8.87239484        0.13921729
  640      1      23.64637192       22.09264228        1.17557002
  641      1      27.50710986        3.93064413       25.59914067
  642      1      10.97896403        1.21100281        8.94901383
  643      1       9.25731097       15.10941574        4.54482111
  644      1       4.62214211       20.12936008       20.13601562
  645      1       0.99716796        3.01689223       11.47133567
  646      1      14.49273062       27.12650934       21.90816583
  647      1      19.33751662       13.77258516       25.52076568
  648      1      21.33836427       15.80400875       27.43800426
  649      1      12.35021663       15.25150954       24.86211453
  650      1      21.57632076       18.23195554       16.73997147
  651      1      20.27050645        6.49599210       19.05004234
  652      1      26.81498566        9.62273196       11.58325622
  653      1       5.23012902       14.00686589        9.29231867
  654      1      25.41109636       12.05012395       18.13299558
  655      1       8.08328616       20.86057290        3.62748448
  656      1       1.78894129       12.56966501        2.13286447
  657      1      11.99765010       13.03399919        5.97013463
  658      1       6.71021355       15.97870463        1.84381603
  659      1      26.24117072       20.36447557       26.29342180
  660      1       7.85974800       22.67531718       19.06540749
  661      1      16.25562522        7.56257919       26.66361140
  662      1      19.41413840       18.54615132        3.32322863
  663      1       1.01665714       16.15753850        0.77637607
  664      1       0.99370378       25.38866372       14.04826335
  665      1      17.14902652        9.80109501        2.38684451
  666      1      14.99185449       14.55453769       17.55738836
  667      1      12.06896250       12.62784484        3.61397161
  668      1      13.03972001       19.86058259       13.03623969
  669      1      21.17251464        9.10806495       22.08305112
  670      1      20.71500137        4.94275785        8.81936357
  671      1      24.18767932        7.64337331       19.25428994
  672      1       8.67004147       11.75330283        6.92893683
  673      1       7.53834119       13.62474986       15.31932678
  674      1      16.41586819       27.27128238        7.51703592
  675      1       1.52044937       12.81749786       10.27184883
  676      1      25.63034849       11.53320972       10.81153957
  677      1       8.21960573        4.82201580        7.08990095
  678      1      20.26733366        4.62326534       17.61606426
  679      1      10.46464631       18.61383361        0.96244668
  680      1       1.94857538       22.76501129       22.06740530
  681      1       3.38120423        2.45249119       19.80984371
  682      1      12.68628381        8.62239939        5.03817114
  683      1      19.92401027        1.96696003       21.62686722
  684      1      15.35659956       23.84575006        3.79801835
  685      1      23.42134189        9.77823250       15.88043485
  686      1       2.20425371        8.93937862        3.17041198
  687      1      22.38809911       10.17320043        2.53512199
  688      1       4.26555156       12.31041096       24.31291978
  689      1      20.67669804       26.25882238       12.45305993
  690      1       5.30050316        8.61134502       18.91349330
  691      1      16.92447950       15.41222938       18.47867975
  692      1      20.91128473       10.24677039        7.17126649
  693      1      15.61799488        5.29319660       26.21909728
  694      1      18.98573123       17.83158327        5.72742194
  695      1       1.92127046       25.50308146       25.71610606
  696      1      21.36169130        6.51728939        2.14328725
  697      1      23.50119779        8.16349010       27.09587395
  698      1      19.08621545        0.66807980        5.18456140
  699      1      20.94489196       11.80497901        3.61923957
  700      1      23.53782485        8.37771914       21.65579393
  701      1      21.24299503       27.60987338        5.19082718
  702      1      24.95809307        8.81802036        8.56390342
  703      1      10.71838213       23.11547454       21.06875792
  704      1      10.51137123        6.75831592       12.10073601
  705      1      22.34827266       21.64031649       14.99854007
  706      1      19.29622816       15.85876316       22.03741413
  707      1       0.29881021        3.16066254        3.57567563
  708      1      10.77188823       26.76412990       21.42282304
  709      1      15.09887291       19.36121416       14.34550297
  710      1      16.41217534       27.61561422       20.62893465
  711      1      23.31377645        4.45662060       25.61326514
  712      1      14.53955678       17.41486703        0.43152221
  713      1       8.70064443        0.57245255       24.15293741
  714      1       5.43515064       17.67726961       14.61248200
  715      1       2.48202316        6.49863027       19.98533846
  716      1      16.27686790       20.07450977        9.82763710
  717      1      10.17149017       18.98862123        6.31967129
  718      1       1.13802424        0.01546724       13.46590041
  719      1      11.34511709       10.72337986       25.46020436
  720      1      25.43387225       19.38941712       16.02663833
  721      1       1.98350113       20.03635913       18.02976016
  722      1      19.15199551        2.59257024        3.80691486
  723      1       3.53367278       10.18080723       27.37723811
  724      1      24.09359978        4.83056408        4.20171501
  725      1      12.32265122       11.84863161       27.39389430
  726      1      10.10058173       13.38967483       20.24954306
  727      1      23.28238713        8.86242682        4.24352359
  728      1      13.70358612        1.91012547        5.99931508
  729      1      23.36801309        7.29806143        7.80046307
  730      1       0.15302256       16.07221266       24.38949044
  731      1      26.81714114        2.71407337        5.62720574
  732      1       0.44304693       21.21642610       25.14638143
  733      1      26.26571497        4.41004422       19.37965950
  734      1       7.24720485       17.95497572       17.85845799
  735      1       1.46026441       11.58782472        5.96515792
  736      1      19.20220920        2.14075635       14.24783392
  737      1       7.71612691        1.85578491       20.44135596
  738      1      20.93158379       14.35318961        6.43275435
  739      1      12.91215914       11.54498343        7.51588023
  740      1      13.76360065       18.69178288        7.79650225
  741      1      23.15387061       14.52600733        2.82689615
  742      1      19.17029952       11.50335498       15.94761216
  743      1       8.24435298       13.62288556       18.82344422
  744      1      22.92238348        6.78098242       25.23271800
  745      1       7.07402321       21.80454649       24.68629714
  746      1       3.37391980       21.26391365       10.63775445
  747      1       0.97834972        0.49710579       23.53335885
  748      1       6.20812302        9.09112837        2.56387114
  749      1       5.64577941       17.24701866       10.81674519
  750      1       9.97240819       26.22712256        6.57384620
  751      1      18.45409701       19.40569802        9.40206983
  752      1       9.21350330        1.76649372        0.10968076
  753      1      22.54179079        2.64803606       15.87192422
  754      1       3.79909565       20.28248408       23.86336911
  755      1      15.73911480        3.33822365        5.44931699
  756      1       7.14772794       18.83093980        4.40582135
  757      1      23.15555971       17.06714937       27.10319215
  758      1       3.77838412       20.21086868       12.72996855
  759      1      25.55877221        9.62944854       26.40375950
  760      1       8.81858373        8.94364261        9.42352303
  761      1       0.14143250       17.87887101       12.24422886
  762      1       3.12916860       17.14458854       14.03888254
  763      1      11.00572736       19.70303784       14.40563102
  764      1       7.40679699        1.72732292        3.68055101
  765      1       2.66992970       14.77329978        1.92055036
  766      1       3.77112990       17.63795651        4.07106491
  767      1      19.18280933       18.69055295       19.55788136
  768      1      14.61546311       18.14022232       25.87102743
  769      1      18.61034487       23.02955527       20.87496606
  770      1      17.11724241       16.52110071        6.50740836
  771      1      20.78159000        8.85119533       18.40777761
  772      1      24.63376117       13.06993029       16.09552938
  773      1       8.69846875       23.40365192       24.17265213
  774      1      14.00396821        1.93455477       18.65306070
  775      1      20.16107031        2.66137752        1.56309363
  776      1      10.46813256        7.17769231        9.77048237
  777      1      20.62806308        5.53595939       21.14938822
  778      1      15.57083438        2.89768135       12.92926146
  779      1      13.28055320       11.82827986       11.17745451
  780      1      19.38444619        9.10385895        8.69870811
  781      1       7.37770990       26.93757725       16.25675712
  782      1       4.78388416        7.71028773       10.01829035
  783      1      24.59892058       26.79635763        2.51329924
  784      1       3.64678607        6.08122576        0.49692027
  785      1       3.73339778        5.14884925       23.03799556
  786      1      13.64305166       23.59505906       17.66136414
  787      1       7.20382604        6.93034726        6.81736158
  788      1       9.84448997       13.71033519        6.37379544
  789      1       4.97045236        1.95059284       23.30283067
  790      1      27.23919972        2.15553184       20.34621143
  791      1      22.06735645       15.36423775       10.01989137
  792      1      21.47522287       13.49984098        8.63362561
  793      1       6.53608728       12.02263781       23.64430727
  794      1      23.91569196       12.23420576        5.99741256
  795      1       6.10854013       26.19595548       19.23115935
  796      1      27.53147630       25.03149712        2.45906250
  797      1      25.01222964       15.12784968       12.25052728
  798      1      25.74460462       13.70057684       21.92524464
  799      1      15.16061631       25.41691281        2.16955690
  800      1       4.56114426       14.13958831        5.37243428
  801      1      10.11768039        6.23652333       24.05654365
  802      1      10.73616556        7.47814079        4.37585305
  803      1      26.66031789        6.49915495       16.42195771
  804      1      20.10274840       20.87483665       23.67623668
  805      1       9.44775942       22.97342164       12.91528390
  806      1      21.23749258       23.64894110        5.78612614
  807      1       1.72366432        9.27453882       26.45701163
  808      1      10.73289163        3.41145570       17.72187394
  809      1      21.07404092        3.70481804       14.34013685
  810      1      21.03652352       20.09891042       26.94433169
  811      1      27.58715185        6.28505047        4.90984009
  812      1       8.54262569       17.04218254       21.51280985
  813      1      15.88305696        5.93867208        8.23868621
  814      1      16.54947606       11.84354185       26.76060158
  815      1       8.39126460       14.72004555       25.24879538
  816      1       7.60352694       24.68824883       22.54471767
  817      1      26.40966972        7.87794107       24.82919398
  818      1      14.56415129       10.97130971        0.03342377
  819      1      11.63462205        3.04381086       12.18109930
  820      1      10.84521673       12.38702774       14.43479870
  821      1       1.67845948       18.22807672       19.55363317
  822      1      13.78681619       21.05010434        7.68624277
  823      1       0.79456341       11.33705876       19.98761663
  824      1       0.68621830        3.71182853        9.09094388
  825      1      10.36525398       14.74023819        0.92014591
  826      1      27.43446773       23.64262871        9.09777636
  827      1       6.18788968        5.23099812       15.99208947
  828      1       0.90687455        0.90753748        2.99684613
  829      1       5.90710143        5.64895426       22.14896439
  830      1       8.83464250        9.64775758       11.76482930
  831      1      26.52645170       10.91472596        3.40764626
  832      1      19.57069697       11.25646851        5.45189365
  833      1       2.18134850        5.45127194        8.53071036
  834      1      15.43601592        0.04428379       15.27822166
  835      1       4.14671624        0.93088393       21.40708064
  836      1      25.74293882       12.26494343        1.66527114
  837      1       8.36021524       24.62694798        5.71769173
  838      1       2.67779792        4.44468707       21.05965277
  839      1       8.00718623       24.61475402       15.91326327
  840      1      22.03295487       26.72569376       19.76518570
  841      1      22.26393136       23.19999762       21.45226762
  842      1      10.33922539       15.38424544       21.60064999
  843      1       5.28161553       18.78954946        0.43017093
  844      1      12.29400207       10.20265684       20.45720697
  845      1      24.98340437       15.67581318       26.58557809
  846      1      13.29499968       24.81756536       24.95079688
  847      1       1.96287397        0.77854201       11.33041269
  848      1      24.35182635       15.54782338       22.73501402
  849      1       5.83569395       23.24715672       12.79800075
  850      1      19.12605561        7.96783775       12.47271453
  851      1      17.52657801       21.47306943        1.81573171
  852      1      15.61303800        2.43538262       15.23768849
  853      1      16.73959700       10.70192003       24.62552093
  854      1      15.34173950       13.22093345        5.56715876
  855      1      11.65555220        2.35324665       19.63921987
  856      1      11.44052905       22.58027027       17.29676857
  857      1       1.97872690        8.43247242       14.12589326
  858      1      23.21251231        0.77446145       22.88414136
  859      1       6.82247812       21.06957927       15.41829583
  860      1       9.01671542        4.36049848        5.00731145
  861      1      10.43586915       24.38354978       15.98594708
  862      1       3.35356570        5.30403807        6.35121859
  863      1      14.26259013        1.50487891       23.24286074
  864      1      20.26048283       10.24849593       20.26236552
  865      1      18.53373490       12.39380390       13.76647843
  866      1      27.21260744       26.30968265       17.86140079
  867      1       6.80764941        8.31665224        0.39573113
  868      1      11.07340273        5.24878337        4.51952378
  869      1      22.77961478        0.28530724       27.21191829
  870      1      23.67807993       17.03360832       17.23901575
  871      1      20.98285709        4.67937046        0.59538554
  872      1       5.27335046        8.63643588       12.09812865
  873      1      25.06124739       10.12475156       21.30443777
  874      1      13.91758554       16.40501368       16.61159230
  875      1       3.38288928       16.76124306       10.19462076
  876      1       4.44743325       15.22335039       16.77544901
  877      1      21.82574155       13.83005705        0.95187021
  878      1       2.87192408        0.88438497       14.85422027
  879      1       3.19205435        6.76888133        2.78159078
  880      1      26.09180217        0.32674877        9.44133173
  881      1       6.71571011       11.32429483       15.96143235
  882      1      15.12129074       18.46706452        4.22307059
  883      1      23.04344208        9.32904935       18.14774878
  884      1      13.79604539        5.81768429        1.94283421
  885      1       5.00425400       26.37832258       10.81254953
  886      1       2.75841999        7.08308780       24.09574611
  887      1       0.41955446        0.02684750        8.04367422
  888      1       1.97284623       24.47794742        9.21317438
  889      1      18.80285395       17.17503321        9.75832305
  890      1      22.46387838       16.70406009        3.00911507
  891      1       1.57909332       15.52532974       26.29554430
  892      1      12.29812516       16.63893878       20.99932433
  893      1      13.59715187       21.87404334       11.82495667
  894      1      25.95765399       25.74637916        0.62704327
  895      1      12.17321276       27.19761708       27.43120833
  896      1       2.85609579       13.81557776        8.69181511
  897      1      19.42293418       26.22613485       14.57963413
  898      1       2.95986019        8.88796608        9.04721413
  899      1      22.82395080        4.41364930       21.50661029
  900      1      24.98966215       26.87887460       13.33918324
  901      1      17.54288361        7.23571553       22.92284971
  902      1      20.83985791       23.87878714       12.48430057
  903      1      17.06289631       25.93641339       14.51975935
  904      1      26.67983069        5.99204139        0.89361066
  905      1      17.75560303       14.36952013       14.75894002
  906      1      14.25951770        8.76945649       27.01366975
  907      1      17.10179724       26.90948733       18.39477397
  908      1      23.94180207       27.59775087       20.82039118
  909      1       0.62866506        2.83210025       16.88307000
  910      1      11.28529633       26.49094405       16.66060046
  911      1       9.61316943       26.10401861        2.11853410
  912      1      26.71492291        7.99169831        9.87699264
  913      1       5.96083745        2.50932397       10.97221279
  914      1      20.37784717        7.82337719       14.68027200
  915      1      22.09440932       26.45032636       23.58560510
  916      1       6.89564178       11.30642104        5.51060330
  917      1      24.64741661       22.16424501        3.33292522
  918      1      22.24680191       20.21587117        1.29911472
  919      1      26.66391091       10.13268524       17.34058032
  920      1       5.40860285        7.36375415       15.52902322
  921      1      11.33408380       12.11848083       23.53616161
  922      1       8.88454538       20.90029360       13.98042817
  923      1      13.57519307        5.25853197       22.62931292
  924      1      17.52650827        8.52156798       24.93088736
  925      1      17.32813365       24.52141303        5.18554120
  926      1      26.11078122       14.97554886        8.62232803
  927      1       5.68627405       18.77314090       12.57781295
  928      1      11.61782380       27.64628620       14.48773998
  929      1      16.44597883       12.02902073        9.05272696
  930      1      13.65439921        1.27032409       26.76236655
  931      1      17.76092835       19.27178607       17.68499555
  932      1      19.47804389        1.09573620        9.38261544
  933      1       3.42283769       13.06807658       17.28290480
  934      1      19.98429688        4.42658251        4.99089722
  935      1       2.33017617       26.90011833        9.25135534
  936      1      21.01405503       15.73158131       20.16060688
  937      1      15.45160707        7.23908073        3.08749701
  938      1      14.93195681       10.64288095        2.30477654
  939      1      22.39029467       11.96582088       12.93069284
  940      1      14.69052138       11.81325766       14.42205865
  941      1       8.14605971       22.19715147        5.59174215
  942      1      15.76953936       17.20627060       15.15993230
  943      1       5.71751551       21.96068875        5.76802752
  944      1      12.64567988        7.80677649       19.98054593
  945      1      12.23642142        2.13537267        2.38356821
  946      1      26.00057388        4.24310709        9.38278472
  947      1      15.45355557        0.51899813       25.34525005
  948      1      12.50509831        8.25379914        9.20854759
  949      1      15.55318640       22.31138928       18.76171473
  950      1      21.39017689        3.21917341       24.96909855
  951      1      25.34075914       20.58230518        8.49917924
  952      1      10.35625247       21.67319515        9.23414765
  953      1       8.70462384        9.50693944       21.83770957
  954      1      17.98878830        7.46826206        7.45025682
  955      1       9.92655909        2.73528515       10.37465474
  956      1      23.46137457        8.11260552       12.67625632
  957      1      21.04597369       15.22179519       25.16625909
  958      1      13.48042284       21.72011242       27.04179878
  959      1      13.64488783       24.44424168        8.61629808
  960      1      15.16670752       15.96315426        9.74086908
  961      1       9.65211952       13.41683364        9.96869841
  962      1      21.03104046       17.10088848        8.90016020
  963      1      26.47008156        2.61119296       12.39670338
  964      1       6.07843094       27.13602860        6.83575277
  965      1       8.60031845       14.69219398       11.75512019
  966      1       8.03106632       20.88255015       26.59361603
  967      1       7.38225944        8.93371713       15.44788743
  968      1      18.35545914       11.28553025        0.72837644
  969      1       4.55908175        7.50243360       20.80583816
  970      1      11.76813453       13.21648102       18.53354191
  971      1      26.35865386       21.24675917       19.52816652
  972      1       0.32753734        8.10511000        6.40387069
  973      1      18.34960587       11.69735525       23.09526527
  974      1       4.57088082       22.97307133       17.62101911
  975      1      11.23432764       10.05010916       14.68333080
  976      1      25.11664507        1.49822787       24.07494002
  977      1      19.18701627       22.76645933       11.16715615
  978      1      26.13402411       12.17625219       14.38213374
  979      1      17.10098876       27.24924998       11.25360443
  980      1       0.98214511        0.69448388        0.61057116
  981      1      14.18820228       11.61487933       20.72452677
  982      1      23.44292802       25.86087209        7.75083893
  983      1      15.16353703        3.47778274       22.30500531
  984      1      24.21210466       13.50265846       25.81755713
  985      1      12.86215365       17.41348458       18.67476588
  986      1      25.85913456        4.84460711        5.70641250
  987      1      14.86372439        5.79098369       17.39480144
  988      1      11.57160493       19.84761322        4.62834261
  989      1       3.57307520        3.33570672        2.92114710
  990      1       8.63025922       17.31369088        5.54436145
  991      1      25.76263553       13.60973544        6.47513652
  992      1       3.96698780       23.66901288       23.16008460
  993      1      17.67981829       16.96227142       16.75709255
  994      1      13.30649906       25.51185613        6.29784690
  995      1      22.31492608       13.35739101        4.70685243
  996      1      24.37009921       18.54420171       13.90129083
  997      1      19.24428548       25.27290021       20.89028456
  998      1      12.23918031        5.32352820       12.56966706
  999      1      14.31218435        2.16137590        1.10600136
 1000      1      18.03702394        9.64840199        4.67585796
