run_id:  1039  total_energy:   -3028.6747233646174

  1000 atoms
  1 atom types
  0.0   27.664  xlo xhi
  0.0   27.664  ylo yhi
  0.0   27.664  zlo zhi

 Atoms

    1      1       0.03315276       18.75143923        6.74494268
    2      1      14.70046912       18.57471866       19.51249718
    3      1      19.79007044       15.11422971       15.71849345
    4      1      17.44315978        8.31734430       17.17069839
    5      1      12.82044110       12.77162853       13.25301859
    6      1       8.86896842       16.66224505        0.76012043
    7      1      13.86294842       23.97431186       26.98775197
    8      1      24.66862787       22.87812020       12.49086239
    9      1       0.69239090       26.05378410        6.12921178
   10      1      26.79807074       27.53403239       27.08384239
   11      1      26.27448146       24.01736166       26.52131663
   12      1      24.70574416       12.78230006       12.53755618
   13      1      11.88045847       16.52948388       11.56401895
   14      1       8.77992427        2.84839018       23.43026700
   15      1      22.31303828       12.24242225       22.78710678
   16      1      15.99876033       21.59579888        8.01931259
   17      1      22.70732830       17.42541402        5.20809767
   18      1       5.60590139        9.50108010       26.42604690
   19      1      24.94733869       10.32861200        5.02177925
   20      1       8.75631057       12.97680845        1.29378192
   21      1      25.66485968       18.07411802        1.76438822
   22      1       2.95744323       23.68390818        7.22359351
   23      1       4.99772746        2.32109914       18.02592450
   24      1      10.44386645       14.39856913       23.83485686
   25      1       0.45209476       14.89968777       19.13524802
   26      1      27.43897111        9.47323003       21.23102000
   27      1      12.90669726       18.16391071        3.70475533
   28      1      22.31485156       19.08619346        9.27702650
   29      1      17.69884522        3.20190552       15.56862483
   30      1      27.32632724       22.38152946        5.59277610
   31      1       4.70072658       21.82351577       14.27717874
   32      1      16.67435835       18.83658809       22.82544796
   33      1      16.96522374        2.91634535        3.33165936
   34      1       9.70050412       16.82912693       12.38057237
   35      1       8.28045063        6.14843432       12.55658658
   36      1      15.76169145       27.17563131        3.59071797
   37      1      10.65217317        6.60477434       20.13128363
   38      1       7.08007875       26.92940437       23.05236304
   39      1      21.84734081        2.79473266       18.13066460
   40      1      10.73821873        0.56894643        1.32578134
   41      1      10.84883834        7.19262512        0.00641553
   42      1      10.52989306       25.39997423        8.69364654
   43      1       4.32787103        0.82817917       11.52991381
   44      1       8.95273795       18.79348353       23.14574770
   45      1       1.36197272       13.19001718       26.40380730
   46      1      23.80312854       11.03882006       19.44153723
   47      1      14.37491090        7.65157416       14.50951114
   48      1       6.64912933        5.07059215       25.78661609
   49      1      14.97817840       20.37966117       25.89977605
   50      1       9.79889416        4.91954266        8.98438389
   51      1       1.43638459       18.45870859        1.08809293
   52      1       7.39423990        2.50251426        1.32963038
   53      1      24.51512932       19.92106611       22.68818926
   54      1       0.11452501       21.47145487       13.44669079
   55      1       6.73948946       22.01197493       11.09439447
   56      1       4.65281341       24.48236314       19.62944449
   57      1       1.92499269       18.80122127        3.35595329
   58      1       5.61532120       11.83301205        9.38212155
   59      1      27.15217783       11.76439032        7.30643309
   60      1      23.36607763        4.39888763        0.17853753
   61      1       2.39563218        3.09761528       15.35845581
   62      1      18.78145595        0.70136736       23.29638002
   63      1       7.96419178       11.88870278        9.51254219
   64      1       5.39680223       27.58399529       17.43209178
   65      1      20.44334098       21.77871806       21.56003590
   66      1       7.09943555        5.30680963        3.65492961
   67      1      15.99715582       13.15662160       15.92331322
   68      1      24.46006021        7.22829867       23.53022772
   69      1       0.18911948       12.32091630       24.59237774
   70      1       7.18020241        2.99501074       18.48645180
   71      1      10.39711709       17.43081231       14.62511863
   72      1      13.76501036        9.71380925       17.36270679
   73      1      13.30961217       21.08256084        1.56666024
   74      1      24.64083422        3.53591485       15.53797456
   75      1      26.31526721        1.82162115       15.97440556
   76      1       2.58883778       10.70737952       10.69043090
   77      1       2.50548922       23.59688985       11.22172336
   78      1       7.52955450       20.07824161       12.21637728
   79      1       3.81242991       16.85590282        7.79366313
   80      1      23.69831473       26.52995592       16.69829685
   81      1       7.06566007        7.65389864        9.09119426
   82      1      18.81807665        3.98658687       21.35471552
   83      1      11.05765848       18.97902940       26.26846681
   84      1      14.77692054       27.40460985        5.80451369
   85      1       0.70229138       21.96764115       18.59926716
   86      1       5.70154257       17.94884742        2.78485652
   87      1      26.84289160       25.11360985       19.96280966
   88      1       9.54969398       15.18760863        8.34575617
   89      1      25.30401487        3.78951409       24.47806914
   90      1      24.29580029        5.92280070       16.07834066
   91      1      11.80690894        4.57219082        2.46425829
   92      1      25.69447574        8.47664152       13.24383963
   93      1      19.95460575        0.39144863       15.65789689
   94      1      16.13285928       10.25110690       20.33416658
   95      1      22.82169586       14.23759743       24.03312261
   96      1      17.73378269       20.81553875       23.69995613
   97      1      10.16102299       19.78281930       19.74164507
   98      1      13.03343379        9.46301625       11.26602633
   99      1      25.69490644        9.96070622       15.15233343
  100      1      27.55443500        6.24429122       26.27832953
  101      1      22.71796812       11.62719887        7.95231507
  102      1      15.02604516       26.02711246       23.98428954
  103      1       8.99492587       14.71296989       16.85531127
  104      1      18.94280075       22.89031041        5.01952968
  105      1      17.91763823       26.48823514        4.09083945
  106      1       2.95170526       25.50243720        5.80836798
  107      1       9.69079982       10.03700533       18.14524584
  108      1      11.20976479        5.35977651       22.13810381
  109      1      23.81151463        1.40211595        2.52794329
  110      1      16.04272264       24.50804129       27.65914529
  111      1      13.88150271       13.63009243       19.46955549
  112      1       1.75110787       15.70632519        7.46659428
  113      1      11.09804973        6.92842864       16.53243029
  114      1      12.92535747        7.77047242        0.97341991
  115      1      23.73582359       24.43084349        9.46072081
  116      1      17.06932587       14.50128578        5.24364979
  117      1      19.85513096        4.87016067       25.90170037
  118      1       8.65265464        2.40869073       14.73736608
  119      1      18.91879861       18.96998300       12.93799193
  120      1       8.89108413        2.13537226       17.07673087
  121      1      12.54329062        5.89402197       14.81622477
  122      1      18.13340282       15.16183378       27.07023623
  123      1      26.90958755       14.27287622        4.55573437
  124      1       5.77791402       19.25388243       16.51660518
  125      1      14.49552494        6.79854214       21.04006892
  126      1       2.66867617       12.36323689       20.95540098
  127      1      19.68659838        6.25113277        3.66180101
  128      1      11.13355198       13.95699155       16.27999527
  129      1      20.88191921       16.66748143        6.52610943
  130      1      14.92770814       22.16342430       20.87048357
  131      1       5.05238772       11.07184143        7.13421963
  132      1      14.79413810       17.19451709        6.34382313
  133      1      25.00487750       25.08637819       15.36349033
  134      1      16.83654599       22.72030857       22.44538240
  135      1       5.19060959       23.24707762        7.66659594
  136      1       6.09742057       20.98093965        0.36907789
  137      1       9.52237102        2.11564013        4.99023967
  138      1       3.05741616       19.42260987       27.34881887
  139      1       6.19329961       15.07454832       11.28424897
  140      1      13.02733010       15.80219476        3.95656524
  141      1       9.61536467       24.49178360       26.14012716
  142      1      26.64215238        0.69387733       13.88431157
  143      1       9.19453114        9.71579904       25.61221756
  144      1       3.88592806        9.09469598        6.87566529
  145      1      16.91364944       23.45714714       11.03787265
  146      1      21.61820481        8.57253285        0.97325204
  147      1       1.85062554       21.88437066        5.96824414
  148      1      11.39049094       26.94226118       10.26771581
  149      1      13.73897154        1.84604100       11.98840435
  150      1       7.35231931        1.26861465        7.91980941
  151      1       0.19174359       12.16556734        0.50183979
  152      1      27.66091856        9.15559358        2.38788150
  153      1      15.44147683       20.61900841        4.78758019
  154      1       7.81120319       25.67892156        3.67262815
  155      1      14.09801326       14.40382266       23.37316658
  156      1      24.76918554       17.58752536       19.25137885
  157      1       2.14038399       24.89141055        1.70385660
  158      1       8.95757860        8.53969401        5.70424765
  159      1       1.16891216       14.13950049       12.27895460
  160      1       2.12303321        6.96366353       26.38645033
  161      1       4.22963731       20.61542398       17.95406256
  162      1       5.54115021       16.37533835       18.49885924
  163      1       4.99576484        1.21433694       13.80578060
  164      1       0.64823425        6.35724789       14.35289548
  165      1      13.26971463       14.82910974        8.67185203
  166      1      19.42060005       23.56560438       26.70560853
  167      1       5.78642389       15.25685550       14.90721225
  168      1      11.06470699       18.63943040       17.83960343
  169      1      14.78600472       18.23795208       10.05157113
  170      1      26.59894729        7.21977040        2.98813868
  171      1      11.51799492       24.49804109        2.78602713
  172      1      20.62955930       15.31114289       12.01773847
  173      1       7.27610651       18.03818995        9.36569044
  174      1       1.77476097       14.49187135       21.33754649
  175      1      16.55920860        9.01353163        6.19025835
  176      1       2.28256870       21.10993971        3.71391546
  177      1      18.05684968       13.48380610        8.51369652
  178      1      25.73493003       23.29348017       22.61073764
  179      1      11.50960363       18.41085788        8.38518167
  180      1      25.57804273       18.05088301        4.04622461
  181      1       8.26164810       25.23984239       19.00474412
  182      1      22.63030769       20.97685752       18.73940935
  183      1      15.39070587       21.73632752        2.77905534
  184      1      21.15711261       26.85811201        2.90610364
  185      1      24.96503946        1.48051519       19.46173452
  186      1      21.92276343        8.33689484        6.07503892
  187      1       0.86635101       23.33564067       26.26152571
  188      1      12.59588952       18.45010458       22.53166866
  189      1      17.44277803       22.57872887       27.41027798
  190      1      14.97385574        5.49097480        6.11084911
  191      1      14.14734705       25.59701909       12.36338665
  192      1      10.80720096        3.09538767       22.01946554
  193      1      25.76196663       25.24310814       24.07823775
  194      1      21.82329007        0.95605069        1.56820933
  195      1      10.28720929        3.58893111       26.76548853
  196      1      17.99484350       24.67918719       17.48845162
  197      1      21.32047243       20.57218880       16.92734586
  198      1      16.41050184       25.39428513       12.33344077
  199      1       3.35663047       26.92978077       16.46916575
  200      1       1.17679294       18.08286281       10.20576333
  201      1       4.07031178       15.86300818       26.28670915
  202      1      16.06052116        5.80314693       19.40748029
  203      1      21.94038462       20.50756036       11.20737965
  204      1       3.79690423       24.88976867        3.49069492
  205      1      18.36220458        5.65088876       12.35882172
  206      1       9.28390232       10.64164241        1.88780340
  207      1      26.82514203        5.52150320       21.32658743
  208      1      26.40992709        7.95302346       18.29458436
  209      1      24.96149291        4.05322205       13.31629706
  210      1      12.96131947        9.00790095       25.09561591
  211      1       4.73558143        9.30932093       22.40842674
  212      1      24.81395400       22.18140966       26.74908077
  213      1       0.20062743       17.84145960        4.67829088
  214      1      23.18352062       16.69232521       20.94501297
  215      1      13.17330467       25.86997781       18.09391217
  216      1      14.16850571       15.29971459       21.15298084
  217      1      26.29220075       15.94841806        0.96597009
  218      1       4.92141078        3.26017570       26.45193786
  219      1       3.78530900       18.62477326        6.32904128
  220      1      20.51308978       10.72416241       23.74457383
  221      1       9.91674470       22.36067373       27.27015333
  222      1      11.38836334       26.01267604       25.48671587
  223      1       1.09318046       12.23567395       13.72912355
  224      1       9.77764448        8.87643134       16.12603969
  225      1      17.26774942        3.77857625       19.59178898
  226      1      16.53161978       11.35104218       12.87654042
  227      1      25.49987600       14.41302110        2.57304232
  228      1       6.17839331        6.11715728        0.18468942
  229      1      13.67882786       12.08793640       22.97296238
  230      1      26.73160817       20.18617861       21.63070984
  231      1       7.69162212        5.71097039       10.27939394
  232      1      22.39705490       19.79461476       13.49475122
  233      1       5.37823611       11.47901094        2.29390815
  234      1       1.14676387       19.02338226       21.65750366
  235      1      21.36333090       16.07838669       14.05954389
  236      1       1.77801527       27.04807641       18.27628949
  237      1      17.04070849       24.90350817       23.58944508
  238      1      20.06908658       23.99787982        1.27958843
  239      1      14.26403639        6.08480526       11.46961900
  240      1      22.20764394       25.15894224       17.96312083
  241      1      14.69094715        9.98233874       23.66052886
  242      1      19.61954521        7.76661023        5.33827227
  243      1       5.44288135       18.67883854       23.77003792
  244      1      24.88908293        2.73558953        0.85860041
  245      1      11.93626843       12.86707031        9.50598128
  246      1       6.83917875       25.03662492        7.50884686
  247      1      19.05349669        4.99876333        7.08348516
  248      1      12.16285430        3.67096085       15.83766847
  249      1      22.45399862        9.85685801       11.51260598
  250      1       1.33608850       18.89019333       16.13246804
  251      1      16.08129044       14.17119441       26.59204095
  252      1       3.06118841        1.22900203        3.77141817
  253      1       5.42317786       12.92696877        0.28690228
  254      1       5.75379934       23.46706315       21.53982893
  255      1      11.85990608        6.86764014       25.48048365
  256      1       0.99794465       15.72104599        5.19154553
  257      1      24.51248681        0.23290546        7.65680848
  258      1      24.66260647        5.18160965        7.65399241
  259      1      15.46949191       27.57571376        9.57937734
  260      1      23.39930092       18.14871046        1.42201483
  261      1      21.17033330       19.97716446       20.32031147
  262      1      25.55059338       16.71206959       24.54516968
  263      1      24.93526510        1.23453475       26.62071361
  264      1      19.94256446       16.89755126       24.07172706
  265      1      12.82565644       18.71174519        1.50267983
  266      1      17.48246123       21.21341024        6.13216749
  267      1       7.36890099       26.74081358       10.76631988
  268      1       9.35989511       24.97072475       21.04941840
  269      1       6.85973994       20.00479961        8.26147827
  270      1       5.34033891       21.57460441        9.34935199
  271      1      16.45121310        3.64138625        9.46141111
  272      1       4.81111043       10.98562195       11.70409958
  273      1      21.83458888       12.00959885       20.36470475
  274      1      15.88502958       21.44865394       11.66335473
  275      1      27.57442891        9.84288153        0.09467491
  276      1      22.30444540        3.81600075        5.30403812
  277      1      17.92638752        7.21028103       19.15058252
  278      1       4.89776246       17.16004950       21.99559556
  279      1       8.76325427       23.04918826       10.56269935
  280      1      20.21030509       24.72408630       16.39696081
  281      1       9.68565590       10.10286959        7.38726832
  282      1      26.77972956        0.82865650       22.35422837
  283      1       2.12152402        5.11781496        4.22452604
  284      1      20.91420521        1.11391297       26.00492969
  285      1       2.66910712        5.85960083       17.71494272
  286      1      22.79197061        7.69647792       14.84217061
  287      1      15.46490880       12.53739212       11.11778065
  288      1       4.42586753       14.70144682       24.28725025
  289      1       1.43419894       10.33914750       24.29558946
  290      1      21.41398662       25.36517310       21.60900134
  291      1      10.41189348       11.25399903       21.55748936
  292      1       4.13428528        4.11118044       16.67733560
  293      1       2.89232717       20.62693964       21.75956839
  294      1      23.46950559       25.68176261       27.16176080
  295      1      20.68434957        1.02106995       19.44112864
  296      1       0.11077724       14.11636751       23.02484750
  297      1      17.86281568       17.58453688       21.23954166
  298      1      14.30213058       15.03266419        0.29363051
  299      1       0.56575969        8.45747902       23.33581303
  300      1       4.81519305       27.11930284        0.60022736
  301      1      19.44904333       25.39936310        8.39650377
  302      1      14.64890685       14.64813430        2.56058328
  303      1       7.28223159       11.07165763       25.65561868
  304      1      17.28538510        4.31800747        1.50715791
  305      1      19.98693754        7.16631269       22.57622164
  306      1      16.75226484       23.81015624       15.55479552
  307      1       3.21125452       10.75073151        2.00342605
  308      1       1.50920747       20.31776994        9.48655399
  309      1       9.47022499        0.91022956        7.07233941
  310      1      25.07154713        1.07664102        5.62807455
  311      1      20.14021344       17.08173709       18.32607818
  312      1       1.01929524        3.02445371       27.61316858
  313      1       3.14481790       11.00163891       22.83120831
  314      1      23.78366094       22.16523403       23.00327029
  315      1       1.39020062        1.64184542       18.84006063
  316      1      14.85437439       27.46197010       17.56454141
  317      1      13.24290232       21.42516427        5.47786010
  318      1      25.59970090       18.97532215       11.93941826
  319      1      24.60438229       18.46631735        9.76733541
  320      1       4.12908803       24.85366253       12.38882219
  321      1       7.65389909       24.41698758       13.64605864
  322      1      12.54440132       17.66096025       24.84692915
  323      1       2.03064476        9.40823490        5.50482844
  324      1      20.29823007       12.97625945       12.22442376
  325      1       9.91614282        0.72274962       19.95145792
  326      1      23.97023760       22.64340589        7.96005733
  327      1       8.23877166       26.53028272       12.84121621
  328      1      23.38997394        6.08382153       11.34598438
  329      1      15.00079740        7.59913131        5.15990218
  330      1      21.69938972       22.35594942        7.57364286
  331      1      23.75738515       16.24232628       13.92037515
  332      1       3.82535254        5.23229590       12.60547377
  333      1      22.57444849       18.77887858       21.82152695
  334      1       0.69632465        3.79469780       21.93733450
  335      1      10.98791073        2.25967130       14.26514401
  336      1      26.18195546       21.20627374       11.81295416
  337      1      19.61530166       20.42305914       11.17398565
  338      1      24.86299829        5.18141894       22.61531630
  339      1      20.06246129        4.33696419       11.09711078
  340      1      19.05162982       19.69105730        7.09166792
  341      1       8.73989542       13.11154038       13.44921794
  342      1      11.54277254       11.06547332        1.94655358
  343      1      18.71257530       19.16805314       27.06115781
  344      1      27.00966324       15.72659064       15.41433035
  345      1       3.56833148       25.85585522       23.99112734
  346      1      10.10204400       21.98900037       19.10216750
  347      1      24.01742547       10.93626024        0.79618134
  348      1      13.48697529        5.13703582       25.07476379
  349      1      26.30645115        6.13967398       13.11615365
  350      1      26.22016954        9.62981015        6.82119692
  351      1      18.24764767        1.07254378        7.26686952
  352      1      26.87019934       22.90480577        3.30809637
  353      1       8.12300658        0.33796468       26.43663954
  354      1      12.95270456        2.32321520        8.27503131
  355      1      19.77631100        8.98135482       25.41507468
  356      1      16.11285717       14.91568398       24.33722342
  357      1      19.72890707       12.41941481        9.97713210
  358      1      18.24825768       13.21277086       19.15258772
  359      1      22.63035489       18.80709543       25.63304343
  360      1      25.83879204       25.31079217        9.98420877
  361      1      15.14551436        4.37079945        0.62919678
  362      1      12.37889922        3.05094195       25.70211791
  363      1      10.18304085       20.40202839        2.81246125
  364      1      26.05778253       24.75262111       12.15425035
  365      1      16.18339282        1.13139574        2.07668160
  366      1      18.95699954        0.73409484       17.83894175
  367      1       6.63772685        6.79575727       24.08283104
  368      1       6.67021080       15.71703122       21.70838518
  369      1       8.41209108       25.91472176       27.58450757
  370      1      15.48265568       20.02906112       17.84144955
  371      1      10.85159536       27.49207015       23.69740270
  372      1      26.98465457        3.74589282        1.44105723
  373      1      23.17032012        5.84651924       18.16527808
  374      1      14.33860377       12.58390324        3.52278071
  375      1      16.81307642       15.43350313        3.02672679
  376      1       6.22600520       14.50467485       19.73575688
  377      1      26.14321039       20.48946176        6.41595027
  378      1       9.06934093        8.38239869       19.80453527
  379      1       4.05887032        7.40346151       13.58627572
  380      1      27.01637881       12.80704193        9.45448419
  381      1      24.71835954       19.90042819       18.42367592
  382      1      12.63913381       22.44651913        9.32720502
  383      1      13.02923539       23.65644593       21.25404820
  384      1      23.86287691       10.50811505        9.69430385
  385      1      18.15948407       11.34316181       20.75529462
  386      1      14.23126096       20.47578806       15.82351619
  387      1       5.79518934       19.73100084        6.22058956
  388      1      27.10802697       19.73070194        0.82902139
  389      1       4.15499311       17.77410927       19.89771993
  390      1       1.21682233       10.92600318       17.58247808
  391      1      11.12428332       22.27698474        1.76061243
  392      1       1.61400464       17.63470424       23.53724148
  393      1       3.78434240       27.32352026        7.13895025
  394      1      26.39535044       21.49742891       15.37786545
  395      1       7.30918829        0.49176926       14.27666043
  396      1       4.57753476       27.23725203        3.05030630
  397      1       5.52239961        3.57140367       13.11818066
  398      1       5.58728452       15.35161015        7.32990266
  399      1       6.32254995        0.05757903       20.93646041
  400      1      27.05795016       17.78268866       16.58172978
  401      1       8.87744206       18.60348165       11.01648839
  402      1       7.83552835        1.36067506       10.23315480
  403      1       1.81411532        4.37535535       13.41081035
  404      1       5.71268093        3.46288164        4.08318349
  405      1       7.44886951        8.31342798       13.03278886
  406      1       1.07227188        7.54192549        8.58827238
  407      1       2.72725602        9.65535859       16.13118262
  408      1      25.23315606        2.00918164       10.43387905
  409      1      19.25566699       26.68998873       10.42208538
  410      1      18.49495068        2.69004522       10.54935719
  411      1       7.58581335        5.39732240       17.93354066
  412      1      18.31702592       17.21327602       25.81509638
  413      1      11.87179116       10.89268866       18.32986947
  414      1       6.18756905       25.22690813        0.24796566
  415      1      14.49736023       21.27994610       23.82881053
  416      1       2.97856364       15.62617845       12.32452692
  417      1      12.24178147       14.26032612       27.13274698
  418      1      21.85611733        0.98071328        9.89795910
  419      1      22.81330346       27.41402758       13.10771638
  420      1      10.59843408       26.47649835       12.65785286
  421      1       6.62536676       10.55739013       21.78131810
  422      1       0.50716925       12.41481097        4.06278213
  423      1       8.03262627        9.90036946        3.95825637
  424      1      20.24709546       23.37482782        9.14371239
  425      1      20.68615501        8.41414416       10.62248495
  426      1      22.41056802       24.10472216        0.96012972
  427      1      17.24756593       20.74995165       26.00489059
  428      1      13.58621185       18.33939900       12.13322618
  429      1       3.27357615       25.12391011       14.78956956
  430      1       5.99728602       12.94610586        4.06781038
  431      1       7.57248266       13.02431616       26.91998085
  432      1      24.44241290       22.78500822       14.82405008
  433      1      22.64187492       22.91004377       11.24273186
  434      1       3.58781323        3.33816580       24.44295193
  435      1       0.56701173       22.79572132       16.44197740
  436      1      21.16438145       25.80343499        6.71158231
  437      1       8.30180323       25.07039679        9.40904772
  438      1      15.98086641       23.78195198        8.81242512
  439      1      12.97299953       25.38080239        1.12497366
  440      1      20.78475714       13.07851586       16.61729998
  441      1       3.87605490        7.93788255       17.17497390
  442      1      17.29824065       25.13819941        7.44946815
  443      1      17.27123888       15.70742696        8.70031283
  444      1      10.13639013        5.13657860        0.87528722
  445      1      15.24587619       14.84631872       11.85059321
  446      1      11.06287283        9.08179770       12.56298830
  447      1       4.38324713       22.32511662        3.80915128
  448      1       5.01786806        7.17506187        6.05389491
  449      1      24.88994973       19.00080745       24.81690152
  450      1       6.49205879       27.44504176        4.38867403
  451      1       9.39729651       27.39804569       17.74654494
  452      1      27.64856162       26.70302606        4.02413146
  453      1      19.64649819        9.31352329        0.00676587
  454      1       1.98870087       22.86281165        0.55929242
  455      1       5.93382596       10.86346614       19.51772098
  456      1       0.61596595       21.60147925        2.01625550
  457      1      17.36365804       11.91091603       17.29843916
  458      1      11.09073055       24.33554859       13.67672305
  459      1       4.74104614       15.02892263        0.75053548
  460      1      22.27121321        3.96374512       12.30401645
  461      1      20.14980085        5.51018160       15.41083462
  462      1      19.79241291       12.87044821        1.83021623
  463      1       4.28266484       11.48353288       15.71955526
  464      1       5.30207886       27.53868431       24.51947229
  465      1      13.11624967       15.05943941       13.00055792
  466      1      23.13367628       22.75387905       25.13829319
  467      1      17.11376746        9.22191536       11.95257253
  468      1      24.62342173       20.17483281        4.66146201
  469      1      21.85146910        2.62224135       22.69239250
  470      1       7.69571382       16.49999699        7.65482104
  471      1       5.41069364        7.15965667        3.72386101
  472      1      25.61383318       11.69435725       25.03729684
  473      1      22.94828227        1.63995770        4.78185543
  474      1      22.61060713       11.97838972       15.35958899
  475      1      27.57891768       21.91982494       22.99997584
  476      1      11.43706748       21.26123947       25.90310522
  477      1      15.69569096        2.25151017       20.25797628
  478      1       7.72222223       11.45555410       18.12753522
  479      1      22.74151446       12.32754338       27.16137396
  480      1      11.83851997        1.32168549        4.53871398
  481      1      12.25462010        4.64957751        8.38764835
  482      1      22.34971520       19.72773581        5.12909223
  483      1      14.49730890       22.91180803       15.36862146
  484      1       6.75127004       14.45175411       23.63283573
  485      1      17.86224328       19.13769003        1.64233346
  486      1      18.67634095       14.96214393        1.72152489
  487      1      24.71692054       24.97136081        5.93951611
  488      1      19.43883256       22.23217527        2.84457983
  489      1      16.17841865        4.81604420       11.67359594
  490      1       9.26242074       17.15884402       16.81837644
  491      1      12.23089861       15.80995716       15.15713250
  492      1      11.88096283       20.34171919       16.27550627
  493      1      27.18535355       15.74692919       12.98846651
  494      1       3.09610657       23.02438511       15.76333358
  495      1      19.11845898       26.10222852        2.09654222
  496      1      17.83462368       22.67935340       18.62859868
  497      1       0.02393409       16.94202436        8.43820156
  498      1      23.50083601       25.09259842       24.92455463
  499      1      20.16326272       27.09413193       24.63708198
  500      1      24.71872271       15.39332193       15.84400756
  501      1      18.82126966       13.30220871        6.27633998
  502      1       6.41158284       22.01540698        2.40711655
  503      1      18.16278525       14.05062869       23.43160012
  504      1       1.55466498       19.40789595       13.65361210
  505      1      22.34095651        0.30487339       15.36519604
  506      1      17.90987955        5.35398785       14.73667998
  507      1      16.08204770       10.02775474       17.98635446
  508      1      21.99159043        6.73710393        9.59447692
  509      1      13.01924186        9.38543359        2.69856701
  510      1      13.75766810       27.58024227       13.55516526
  511      1       3.03588532       15.49574898        4.12387465
  512      1       2.48406029       16.46382401       16.28409128
  513      1       8.69249444        8.11150324       23.84514744
  514      1       7.95974947       16.84464997       26.26776486
  515      1      17.84865644       26.57749764       22.12267608
  516      1      12.75034176        4.75487226        6.10644320
  517      1      13.18502428       23.72609631        4.68638696
  518      1       7.11377816       20.17806559       23.00083768
  519      1       1.23568174       10.12317354       12.53529558
  520      1       9.99670693        5.53539157       18.08204494
  521      1      18.61068814       25.40685140       25.38900401
  522      1      23.21456622        1.90805521        8.41772877
  523      1       3.96053691        5.59803869       10.20640404
  524      1       3.13707496       15.93400247       22.74111559
  525      1       3.77281034       12.23837723       13.53306104
  526      1      16.33002138       17.28065456       24.60952545
  527      1       2.55931486       26.57970634        0.09339264
  528      1      12.87451695       25.95216765       20.56378361
  529      1      20.80360515       18.33645611       14.36897338
  530      1       3.94513652       21.79313121       27.19087083
  531      1       4.68407651        3.42619319        6.19144173
  532      1      14.84001278        8.20989943       12.24355217
  533      1       7.32966511        7.77544230       18.19720109
  534      1       6.51593338        3.44982052        7.59458405
  535      1       4.90559423        8.24746416       24.47060568
  536      1      14.25922123        3.45352740       16.82239923
  537      1       3.28494304        3.78621493        0.52337161
  538      1      23.84267339        6.80674874        3.03031696
  539      1      18.92900396       21.13941697       17.06426507
  540      1      20.43816375       23.00828710       14.63629185
  541      1      23.67912830        3.76598637       19.37811647
  542      1       1.20862206       23.82363065       20.15825910
  543      1      12.91055329       23.00090953       23.56320866
  544      1      13.29387662       23.60988868       13.32496445
  545      1       2.62138307       25.67054409       20.04439073
  546      1       3.06418976        1.65863723        6.13674613
  547      1      24.69658020       11.74764074       22.83910471
  548      1       7.99035143       18.93171270       19.89951229
  549      1      10.73419699       19.72579813       10.22622506
  550      1       4.70063995       22.18767714       24.89101605
  551      1       3.36704399       12.64132938        6.71538104
  552      1      23.08167779        1.74553746       11.75783371
  553      1      17.68668559        6.33690309        2.43529840
  554      1      18.44759093        3.06676025       17.73422660
  555      1      17.55728560        1.81306619       25.18101148
  556      1       6.79125520        3.25411598       22.27876392
  557      1      18.99058531        1.62383130       27.27845462
  558      1      17.81704788        7.93909585        0.73513102
  559      1      23.12432776       23.23806790       19.28990032
  560      1      22.84729431       25.31561669        2.81481830
  561      1       0.17114812        7.41207992       20.15338342
  562      1       7.75022646        4.86231512        1.47578546
  563      1       0.59483096       23.76277092       12.66665081
  564      1      20.25969533       16.70743086        2.11360112
  565      1       7.52822339       11.57348417       12.11442638
  566      1      26.88239275       24.28990176        6.71775796
  567      1      26.75521439       13.08125523       19.76808404
  568      1       0.89158924        2.17519952        7.17860347
  569      1      17.40909861        3.22915956        7.18702002
  570      1      27.27208576       24.94986063       16.07979990
  571      1      20.90111680       22.02523468       25.60835208
  572      1      13.59367396       14.73281331        6.27171379
  573      1      17.02340961       20.36600554       13.52331952
  574      1      25.50273989        0.24741701       17.54259699
  575      1       2.63188261       26.99231974       22.13771846
  576      1       8.93089029       18.80838262       25.52216637
  577      1       6.28626095       24.45387206        2.40419392
  578      1      13.13876792        7.47313929       17.73054161
  579      1      14.60020939       19.64089635       21.78811709
  580      1      15.72644847        8.53737676       21.95560962
  581      1      27.12849367       21.60033574        9.69191559
  582      1      21.24318162       18.76119332       23.74196173
  583      1      23.30259752       23.77504229        4.49130682
  584      1       6.68068701       21.05971710       20.77794585
  585      1      24.41281534       15.96239201       10.08073610
  586      1      20.64717839        6.86172811       24.82202648
  587      1      14.66824482        2.03311531        9.77098566
  588      1      25.77731738        6.01650380       10.76320335
  589      1      13.56509316        9.79272824       15.14491722
  590      1      17.21050493        4.75120155       22.95662467
  591      1      21.38849425       20.14901000        7.25120066
  592      1      18.66822564       16.76684242       12.02616336
  593      1       4.76406023       14.36932695       13.03707862
  594      1      11.09011131       14.79119777        3.17534935
  595      1      20.90629652       20.30690409        3.23483708
  596      1      17.84599332       27.62951843        0.72578636
  597      1      25.46355644       26.78042172        4.54234930
  598      1       0.25329958        4.94953705       17.65402938
  599      1       7.44657570        4.41444954       14.12486495
  600      1       8.91773092        4.45922664       25.11106433
  601      1       7.63525404       14.24268747        3.07716557
  602      1      11.50494328       16.25857690        9.17403579
  603      1      12.04041671        1.88380701       23.66494412
  604      1      17.57208748        4.19922626       25.18642130
  605      1      13.81519424        6.28111788        9.24033912
  606      1       3.58804525       12.28015966       26.52399328
  607      1      17.59757811        1.62638862       12.40632035
  608      1      27.20553781       17.09194887       18.88752219
  609      1      27.66241038       26.65148401       25.07600557
  610      1      16.27098855        6.81214008       15.77161405
  611      1      25.86010592       26.42115426       21.74091336
  612      1       4.47386196       12.73252400       19.43721310
  613      1      19.53539216        9.12834914       16.41085125
  614      1      25.38322851       23.27934915       20.14224114
  615      1      11.50974576       26.56509484        4.82038430
  616      1      18.02434745       10.39520722        9.96157007
  617      1       2.09579847       19.44859036       25.14330589
  618      1      13.61907677       26.19271051       10.16102792
  619      1       8.94545263       20.86983723        7.38957724
  620      1       1.97152503       19.94228735        7.17565389
  621      1      10.75177396       19.88271759       22.16587611
  622      1       6.81779979       22.86387739       16.97584668
  623      1      13.31343451        9.81386001        7.27600786
  624      1       5.81638005        0.96717693       26.69919829
  625      1      16.83747768       15.81636618       13.27232298
  626      1      15.40630500       10.99610732        7.06055236
  627      1      22.66483765        3.96644085        7.57258519
  628      1       5.87207821        4.37044486        9.63288266
  629      1      16.00263426       16.64141199       20.18822684
  630      1      10.67803675       22.02289133       23.43913958
  631      1      16.14522793       17.67180862        2.29212676
  632      1      20.64643639       13.57568947       19.04327410
  633      1      24.39140431        6.38832345        0.68037817
  634      1       1.09697115       14.50436643       16.84326368
  635      1       1.30344200        2.84260575       24.05294943
  636      1      18.21140736       22.01576928       14.96370986
  637      1      16.90511256       26.43135250       26.65738159
  638      1       5.70364159       17.62098855       26.03304696
  639      1       9.12290435        8.89783632        0.14814963
  640      1      23.62220305       22.07525995        1.15722261
  641      1      27.51905068        3.93936935       25.58599963
  642      1      10.99311400        1.26400488        8.93577826
  643      1       9.20401394       15.23977876        4.54722062
  644      1       4.62002910       20.12218181       20.16242457
  645      1       0.97468021        2.97815437       11.48049942
  646      1      14.48100193       27.09944315       21.87742517
  647      1      19.31560871       13.75955872       25.52725184
  648      1      21.31713972       15.79048015       27.44481001
  649      1      12.34755334       15.24939770       24.87264232
  650      1      21.53032416       18.19513008       16.75419201
  651      1      20.28311730        6.46040597       19.03687300
  652      1      26.82309634        9.60172260       11.57958487
  653      1       5.13431074       14.09297515        9.32219089
  654      1      25.41222594       12.03841787       18.11899275
  655      1       8.07399379       20.89236887        3.65845967
  656      1       1.79090630       12.59028569        2.14230460
  657      1      11.78157850       13.04413949        6.02706007
  658      1       6.69095013       16.01554075        1.85550057
  659      1      26.22983433       20.35288989       26.29637385
  660      1       7.86532880       22.66636134       19.06176703
  661      1      16.27568610        7.56187132       26.63686487
  662      1      19.38061464       18.51873816        3.32470984
  663      1       1.00804141       16.16497260        0.78648739
  664      1       1.06908510       25.41866092       14.24343210
  665      1      17.17957339        9.77797982        2.34737499
  666      1      15.02972755       14.49594927       17.55641090
  667      1      11.97775135       12.62275126        3.66283617
  668      1      12.09680389       20.08380006       12.15476054
  669      1      21.18768971        9.09172976       22.06651690
  670      1      20.77649527        4.88498869        8.80054672
  671      1      24.20329820        7.61699508       19.23406862
  672      1       8.40724544       12.04219286        7.02902088
  673      1       7.51675548       13.64727463       15.32276387
  674      1      16.41707089       27.27024946        7.48396617
  675      1       1.49853695       12.84156328       10.26600515
  676      1      25.63416205       11.52251230       10.81422110
  677      1       8.26607824        4.93784622        7.07049924
  678      1      20.29059762        4.58199816       17.60910768
  679      1      10.45295544       18.61913129        0.99004129
  680      1       1.94975266       22.75651186       22.10026847
  681      1       3.39855160        2.46597504       19.81519709
  682      1      12.95373554        8.75100801        5.09076318
  683      1      19.92563112        1.94736104       21.61393217
  684      1      15.32739967       23.82537416        3.78693765
  685      1      23.43318092        9.74403128       15.86290126
  686      1       2.21802371        8.95855911        3.17467773
  687      1      22.41645087       10.16101953        2.52307925
  688      1       4.27228443       12.31627399       24.32071574
  689      1      20.66268557       26.18925656       12.45980297
  690      1       5.30282853        8.61846738       18.91336520
  691      1      16.95888972       15.29538609       18.53262434
  692      1      20.94823837       10.22055051        7.16352502
  693      1      15.63410336        5.29381218       26.18732286
  694      1      18.92182005       17.77747102        5.71895418
  695      1       1.92823495       25.50121722       25.70626428
  696      1      21.39801019        6.49901194        2.10831151
  697      1      23.51970173        8.15199550       27.07552344
  698      1      19.06613772        0.65328132        5.13082818
  699      1      20.97353545       11.79116990        3.60864091
  700      1      23.55076385        8.36033872       21.63500885
  701      1      21.21438682       27.60412939        5.11624832
  702      1      24.98073125        8.80677226        8.57222649
  703      1      10.71789050       23.08287704       21.03365278
  704      1      10.55994663        6.78361994       11.99433112
  705      1      22.27973712       21.59987385       15.02696596
  706      1      19.27102927       15.85991046       22.04179829
  707      1       0.32521739        3.18527566        3.55295807
  708      1      10.78534900       26.74612053       21.40387179
  709      1      15.10865422       19.02908763       14.12968063
  710      1      16.40075576       27.58478722       20.60132731
  711      1      23.32294873        4.44838963       25.58995406
  712      1      14.51686485       17.39117878        0.47472230
  713      1       8.71638400        0.57577564       24.15303288
  714      1       5.37362249       17.72119235       14.63816836
  715      1       2.48929156        6.50461472       19.97841178
  716      1      16.31711499       20.06937103        9.81053419
  717      1      10.20172437       19.02723162        6.48116214
  718      1       1.19339642       27.64763201       13.48710847
  719      1      11.35682440       10.73283886       25.46624563
  720      1      25.38981366       19.36286820       16.05813254
  721      1       1.96540840       20.02664532       18.06964980
  722      1      19.15863416        2.57384710        3.76679655
  723      1       3.54310526       10.19409529       27.38526085
  724      1      24.11996435        4.81013178        4.17995859
  725      1      12.32678711       11.85714701       27.40708234
  726      1      10.10390017       13.38948634       20.24815809
  727      1      23.32208702        8.85098700        4.22699418
  728      1      13.71908694        1.92344598        5.98319860
  729      1      23.39672895        7.29447338        7.80655197
  730      1       0.14411424       16.06820483       24.39609636
  731      1      26.83157345        2.72126161        5.59212426
  732      1       0.43674835       21.20198835       25.15789815
  733      1      26.27971177        4.40400415       19.36518496
  734      1       7.23132870       17.96388051       17.86253285
  735      1       1.44378495       11.59984438        5.96108847
  736      1      19.22555726        2.08568728       14.23660034
  737      1       7.73776368        1.86355857       20.44289557
  738      1      20.89873259       14.33331250        6.41866868
  739      1      11.71549266       11.37186351        7.62398113
  740      1      13.74468523       18.71445142        8.01209078
  741      1      23.14699565       14.52460157        2.82781678
  742      1      19.19500106       11.42777515       15.92517444
  743      1       8.24455090       13.62963817       18.82448578
  744      1      22.93522422        6.77253886       25.21287587
  745      1       7.08225037       21.80472760       24.68964017
  746      1       3.27117417       21.38295220       10.66801750
  747      1       0.98764534        0.49925700       23.53358632
  748      1       6.26836530        9.13126010        2.59771403
  749      1       5.59624591       17.34104297       10.85956562
  750      1       9.96533911       26.28300269        6.56223739
  751      1      18.47425168       19.38019715        9.37971086
  752      1       9.23291231        1.78623608        0.11205169
  753      1      22.56644868        2.56377553       15.86458947
  754      1       3.80179336       20.27737793       23.87977312
  755      1      15.77316299        3.32688254        5.43415973
  756      1       7.12492148       18.88532772        4.45988619
  757      1      23.13687828       17.05295150       27.10850526
  758      1       3.68547702       20.28909224       12.74723337
  759      1      25.56579454        9.63277569       26.40466684
  760      1       8.88958664        9.07600049        9.48322890
  761      1       0.06608212       17.98059854       12.26662645
  762      1       3.06797059       17.18933005       14.07018044
  763      1      10.81459061       19.77561758       14.24846020
  764      1       7.44088243        1.78261762        3.68173626
  765      1       2.66198462       14.79869742        1.94388616
  766      1       3.75018113       17.67952188        4.11230703
  767      1      19.11322550       18.79264481       19.59867374
  768      1      14.59641138       18.12026373       25.89600353
  769      1      18.56919353       22.99800066       20.84213018
  770      1      17.03015689       16.45011827        6.51953487
  771      1      20.79963867        8.81263682       18.40028842
  772      1      24.62579036       13.05651210       16.08099909
  773      1       8.71252420       23.40164252       24.17594076
  774      1      14.00681770        1.90600446       18.62828785
  775      1      20.14537145        2.65987494        1.51389887
  776      1      10.56027024        7.31317891        9.64392547
  777      1      20.63860568        5.51304289       21.13592217
  778      1      15.61149375        2.86935913       12.90741011
  779      1      13.22328832       11.81179294       11.15987088
  780      1      19.44244845        9.05249480        8.69684145
  781      1       7.37994964       26.96744350       16.25929329
  782      1       4.82098625        7.76379233       10.01880136
  783      1      24.57749263       26.78839529        2.45539827
  784      1       3.67035565        6.10740237        0.50173958
  785      1       3.74524306        5.15893359       23.03964106
  786      1      13.64175369       23.52266975       17.52851596
  787      1       7.30251309        7.08561562        6.84175842
  788      1       9.69949368       13.91158217        6.41045085
  789      1       4.98709130        1.95983568       23.30626567
  790      1      27.25888869        2.15915417       20.35066349
  791      1      22.07071389       15.36491884        9.99293326
  792      1      21.47272561       13.48955243        8.61405763
  793      1       6.54368514       12.03218328       23.65197746
  794      1      23.92228230       12.23428449        5.99522527
  795      1       6.12431753       26.20476392       19.24242180
  796      1      27.54309948       25.03441106        2.40891437
  797      1      24.99512564       15.14798108       12.24439766
  798      1      25.73900985       13.69379308       21.92289771
  799      1      15.14218033       25.39270128        2.15319731
  800      1       4.53003616       14.20331409        5.39914620
  801      1      10.13087155        6.24542706       24.05604963
  802      1      10.90442024        7.64533312        4.72099263
  803      1      26.67264967        6.47154354       16.40372635
  804      1      20.07755827       20.86151418       23.67753270
  805      1       9.36048038       23.02778356       12.90895518
  806      1      21.18851475       23.62905729        5.72265425
  807      1       1.73534574        9.28687791       26.45764179
  808      1      10.75158629        3.41646343       17.71251700
  809      1      21.10180126        3.63271106       14.34225373
  810      1      21.00671535       20.07911679       26.94700658
  811      1      27.61108112        6.29538000        4.89843742
  812      1       8.54758826       17.04590932       21.50846681
  813      1      15.94536215        5.91951622        8.23912819
  814      1      16.56186534       11.84202563       26.75033646
  815      1       8.39450932       14.73018191       25.25808024
  816      1       7.62076402       24.68631798       22.54444889
  817      1      26.42038859        7.88113790       24.82175059
  818      1      14.57556612       10.98403950        0.02781197
  819      1      11.65784025        3.06325865       12.16199467
  820      1      10.83819234       12.38523310       14.45329331
  821      1       1.66660811       18.20880122       19.57766079
  822      1      13.76345717       21.06016660        7.71856269
  823      1       0.79543627       11.33318980       19.98333293
  824      1       0.71569819        3.68715656        9.09186791
  825      1      10.36192800       14.76235457        0.94566677
  826      1      27.34142224       23.89599925        8.96282458
  827      1       6.20422311        5.24791945       15.98137703
  828      1       0.93204421        0.93386184        2.95741079
  829      1       5.91941917        5.65915128       22.15330888
  830      1       8.87173263        9.69002085       11.81049344
  831      1      26.53504668       10.92398785        3.40669205
  832      1      19.61202867       11.22117753        5.43438530
  833      1       2.21150551        5.45714060        8.53504082
  834      1      15.43316649        0.01424302       15.25106409
  835      1       4.16456102        0.94043552       21.41142647
  836      1      25.74838166       12.27587956        1.66515005
  837      1       8.35133672       24.67007490        5.72156659
  838      1       2.69035675        4.45551190       21.06045882
  839      1       7.98455045       24.63903044       15.91511694
  840      1      22.02451107       26.71040813       19.78598606
  841      1      22.24446307       23.18825877       21.46506164
  842      1      10.34223463       15.38485074       21.59822798
  843      1       5.27927787       18.79967194        0.45099876
  844      1      12.29985909       10.19518371       20.45507938
  845      1      24.97201061       15.66884016       26.59260726
  846      1      13.28715152       24.79997628       24.93122953
  847      1       1.97819958        0.76711183       11.32316132
  848      1      24.33816683       15.53612051       22.73921568
  849      1       5.76421221       23.31121057       12.81722593
  850      1      19.17130133        7.90597660       12.46988374
  851      1      17.49049772       21.44204762        1.80841231
  852      1      15.63048714        2.40500949       15.21736379
  853      1      16.74836830       10.69727885       24.61433877
  854      1      15.21249236       13.05015315        5.66252802
  855      1      11.66890238        2.34829449       19.62706587
  856      1      11.43027027       22.54041218       17.20100078
  857      1       1.98054780        8.44021176       14.11825347
  858      1      23.21202313        0.76366052       22.88582471
  859      1       6.73172458       21.10642216       15.44797544
  860      1       9.06237902        4.45449550        4.99792335
  861      1      10.41668076       24.38410474       15.95010475
  862      1       3.39788397        5.35956448        6.35420994
  863      1      14.26123842        1.48637857       23.21625919
  864      1      20.27379163       10.22280720       20.24716450
  865      1      18.55455473       12.27609031       13.71355235
  866      1      27.23456097       26.31605536       17.95354323
  867      1       6.83178396        8.34560952        0.41460713
  868      1      11.12454364        5.36933275        4.55436040
  869      1      22.77695582        0.27339533       27.16857635
  870      1      23.64070818       17.01247447       17.24193845
  871      1      20.99672607        4.66965520        0.55671811
  872      1       5.28847213        8.67742897       12.10955428
  873      1      25.06450266       10.11296106       21.28956954
  874      1      13.99277218       16.36813421       16.61848144
  875      1       3.32234162       16.97836541       10.22921143
  876      1       4.42504231       15.24068128       16.78888340
  877      1      21.82130896       13.82162363        0.95231195
  878      1       2.91142341        0.90385205       14.86114229
  879      1       3.23487653        6.80323062        2.79093486
  880      1      26.16566789       27.61215770        9.27654536
  881      1       6.70928822       11.34071710       15.96154356
  882      1      15.09953620       18.43098765        4.31116708
  883      1      23.05724577        9.30075716       18.13223587
  884      1      13.83666199        5.82663123        1.90704552
  885      1       5.00048962       26.43115691       10.80693339
  886      1       2.77269743        7.09506219       24.09631567
  887      1       0.47053991        0.00189303        7.93843224
  888      1       1.91504447       24.57805888        9.19799119
  889      1      18.79558110       17.13432952        9.72613232
  890      1      22.44199713       16.69729090        3.00673834
  891      1       1.57308864       15.53097389       26.30494450
  892      1      12.29610470       16.63809873       20.97686910
  893      1      13.47997066       21.94818832       11.61821485
  894      1      25.96398828       25.74545102        0.60132431
  895      1      12.17504181       27.19764746       27.42741243
  896      1       2.78935623       13.83350972        8.64865299
  897      1      19.39783203       26.17880955       14.57287020
  898      1       2.96582477        8.91060067        9.05822788
  899      1      22.83513389        4.39786808       21.49081773
  900      1      25.10644796       26.51122630       13.47203409
  901      1      17.55356340        7.22405444       22.90192155
  902      1      20.79927636       23.83627783       12.47034332
  903      1      17.04014345       25.89351303       14.48670463
  904      1      26.70288468        5.99411872        0.87961155
  905      1      17.76372761       14.23131134       14.66722105
  906      1      14.28329748        8.78038357       27.00549056
  907      1      17.08760667       26.86805736       18.36843174
  908      1      23.94452799       27.58332672       20.83105935
  909      1       0.63889915        2.79847600       16.86026079
  910      1      11.28792406       26.47990413       16.63415794
  911      1       9.63718390       26.12024508        2.13334923
  912      1      26.72544342        7.94959702        9.88457536
  913      1       5.98431629        2.57618837       10.95222543
  914      1      20.41156169        7.76304551       14.67662670
  915      1      22.08202523       26.43824985       23.57574889
  916      1       6.82471997       11.37572247        5.50854210
  917      1      24.63261847       22.15358424        3.30446329
  918      1      22.22128737       20.19947095        1.29554464
  919      1      26.66887097       10.12117523       17.32605668
  920      1       5.41628089        7.37888781       15.52569969
  921      1      11.33911939       12.12130041       23.53698658
  922      1       8.73943793       20.97230638       13.99554784
  923      1      13.57918961        5.24491266       22.61647621
  924      1      17.54359032        8.51836732       24.90673366
  925      1      17.29910727       24.50772251        5.15826741
  926      1      26.08910569       15.00623145        8.63360281
  927      1       5.59382943       18.85264026       12.61797335
  928      1      11.61939227       27.65420472       14.46713772
  929      1      16.43901143       11.87272933        9.03403459
  930      1      13.65690984        1.26689354       26.74750856
  931      1      17.70021835       19.23741758       17.58646101
  932      1      19.55293336        1.07862907        9.31881308
  933      1       3.41272905       13.07678800       17.28985815
  934      1      20.03592841        4.37429516        4.95818722
  935      1       2.35608997       26.95409407        9.21051363
  936      1      20.98122311       15.71887857       20.17072265
  937      1      15.52601029        7.20331410        3.01604701
  938      1      14.95808109       10.66636485        2.29607333
  939      1      22.40102930       11.93529588       12.91385671
  940      1      14.70038342       11.75504942       14.41177465
  941      1       8.12244882       22.23975541        5.60962080
  942      1      15.94604178       17.08601089       15.21083040
  943      1       5.69268991       22.01701924        5.77684183
  944      1      12.65251606        7.79661740       19.97529683
  945      1      12.24909007        2.18822165        2.37674950
  946      1      26.01755010        4.13644152        9.38691536
  947      1      15.44577917        0.50916586       25.31953142
  948      1      12.73871654        8.35766382        9.17360360
  949      1      15.48796715       22.22248661       18.65463104
  950      1      21.39521558        3.21122251       24.94529608
  951      1      25.28624897       20.71554827        8.53405698
  952      1      10.23464712       21.78954997        9.22630223
  953      1       8.71084112        9.51225589       21.84003496
  954      1      18.08526044        7.39420033        7.45007921
  955      1       9.94968219        2.79988654       10.35399447
  956      1      23.49032264        8.05960326       12.66538673
  957      1      21.02901524       15.20493132       25.17029874
  958      1      13.46717388       21.69795580       27.03724384
  959      1      13.65344356       24.51516903        8.56148165
  960      1      15.17883417       15.89387349        9.77097365
  961      1       9.54300555       13.60754924       10.03876538
  962      1      21.02808388       17.09740007        8.87678095
  963      1      26.45380014        2.45344551       12.36373577
  964      1       6.10655112       27.20607143        6.81504580
  965      1       8.56236271       14.81183088       11.84923527
  966      1       8.03085538       20.88132158       26.60004047
  967      1       7.38324398        8.94966418       15.44996526
  968      1      18.37794779       11.27612434        0.70414252
  969      1       4.56491902        7.51144250       20.80744176
  970      1      11.77173043       13.21110201       18.53266861
  971      1      26.33637553       21.22551888       19.55685742
  972      1       0.33964122        8.10855253        6.40714815
  973      1      18.35693719       11.68983446       23.08716477
  974      1       4.55602721       22.97530830       17.67443057
  975      1      11.24295025       10.03664047       14.69126123
  976      1      25.12166945        1.49987927       24.06610496
  977      1      19.17940782       22.74713298       11.13033626
  978      1      26.13011518       12.17292783       14.36978626
  979      1      17.12989923       27.23560219       11.20864981
  980      1       0.99891215        0.70712455        0.57760301
  981      1      14.19622602       11.60399850       20.72057118
  982      1      23.31844014       25.90733046        7.59720281
  983      1      15.16554788        3.46059492       22.28149544
  984      1      24.20727892       13.49527568       25.81477946
  985      1      12.85498100       17.38827829       18.63509862
  986      1      25.88439994        4.85344213        5.68705334
  987      1      14.87461117        5.76307965       17.39026578
  988      1      11.56203342       19.83890565        4.71313237
  989      1       3.60035657        3.36954508        2.91611492
  990      1       8.61478677       17.41506270        5.62410712
  991      1      25.75369380       13.62631126        6.48117897
  992      1       3.97885332       23.66645494       23.17157007
  993      1      17.97779084       16.70003332       16.89438072
  994      1      13.29466770       25.54262334        6.25713153
  995      1      22.31553666       13.35337351        4.70779722
  996      1      24.33788889       18.56847905       13.90710806
  997      1      19.22097557       25.24219492       20.86587870
  998      1      12.26474627        5.33895512       12.53857871
  999      1      14.31603199        2.17042176        1.08458468
 1000      1      18.16958980        9.58377401        4.59248998
