run_id:  1013
total_energy:   -3028.3391434805762
  1000 atoms
  1 atom types
  0.0   27.664  xlo xhi
  0.0   27.664  ylo yhi
  0.0   27.664  zlo zhi

 Atoms

    0      1       0.03317407       18.75355693        6.77161601
    1      1      14.71429490       18.60074541       19.60691850
    2      1      19.85836305       15.22027762       15.88089292
    3      1      17.39651699        8.34930794       17.17128747
    4      1      12.87894533       12.82676150       13.34140696
    5      1       8.83967428       16.67181084        0.72230848
    6      1      13.87835442       24.00252025       26.97485848
    7      1      24.75374793       22.85845668       12.51001112
    8      1       0.64971403       26.01056328        6.12842621
    9      1      26.75767332       27.54026778       27.08839860
   10      1      26.26272257       24.03720804       26.53365335
   11      1      24.73232890       12.81788694       12.65155431
   12      1      12.03266618       16.24986377       11.52630187
   13      1       8.77449399        2.83128975       23.39177198
   14      1      22.31011315       12.21351759       22.84151118
   15      1      16.04151089       21.66875380        8.04803584
   16      1      22.72781201       17.43493475        5.22374480
   17      1       5.64004854        9.39628877       26.31114629
   18      1      25.00748461       10.29619251        5.07666850
   19      1       8.64449850       12.94241547        1.24983799
   20      1      25.64689042       18.09619021        1.78699822
   21      1       2.97962316       23.64172504        7.22075641
   22      1       4.97282808        2.30824623       17.97579532
   23      1      10.41147563       14.38309139       23.84940399
   24      1       0.41273467       14.88481096       19.07112942
   25      1      27.42462948        9.47718491       21.20142903
   26      1      12.91777551       18.23138224        3.59030658
   27      1      22.34639763       19.08778476        9.28327203
   28      1      17.68067396        3.25809362       15.54674288
   29      1      27.30303783       22.37963343        5.61536079
   30      1       4.80798200       21.73723889       14.26738016
   31      1      16.70819674       18.83843261       22.84797370
   32      1      16.94962979        2.95083573        3.35197095
   33      1       9.81281378       16.63919473       12.27813061
   34      1       8.20925567        6.09030770       12.54791032
   35      1      15.73721187       27.21573551        3.59742407
   36      1      10.62553624        6.59537096       20.12389037
   37      1       7.06865899       26.92378444       23.02310018
   38      1      21.86857591        2.76044918       18.07744767
   39      1      10.72639702        0.54464118        1.29267626
   40      1      10.81183823        7.15746009       27.65922728
   41      1      10.63294377       25.35770107        8.65489193
   42      1       4.48542390        0.64834572       11.50896033
   43      1       8.94086366       18.79747974       23.14423632
   44      1       1.36543897       13.16523644       26.41876771
   45      1      23.73249466       10.99344630       19.50179054
   46      1      14.35471220        7.67919816       14.48455444
   47      1       6.62058264        5.00205551       25.70557442
   48      1      14.99790537       20.39549059       25.89984508
   49      1       9.75433769        4.85556214        8.97084839
   50      1       1.40309622       18.51551391        1.07411650
   51      1       7.37273083        2.40917480        1.29924702
   52      1      24.53677214       19.93114743       22.69950327
   53      1       0.18949397       21.45113637       13.44168588
   54      1       6.88609834       21.89839266       11.07868266
   55      1       4.66339884       24.46169703       19.59832730
   56      1       1.89688784       18.83205313        3.35752597
   57      1       5.74865275       11.75904914        9.29878547
   58      1      27.18211728       11.73519932        7.36050758
   59      1      23.34677915        4.41739102        0.21099513
   60      1       2.38284860        3.04404564       15.25892676
   61      1      18.79176906        0.72712182       23.29251089
   62      1       8.11410124       11.71752486        9.27343825
   63      1       5.41474198       27.56008013       17.40689356
   64      1      20.48136953       21.77160153       21.56882099
   65      1       7.07766454        5.13164284        3.62378035
   66      1      15.99393182       13.21288507       15.97692163
   67      1      24.44863255        7.22118785       23.55470296
   68      1       0.20038792       12.28480497       24.61336361
   69      1       7.14721729        2.98945344       18.45783312
   70      1      10.42398688       17.36184687       14.60232368
   71      1      13.74085911        9.71851776       17.37308139
   72      1      13.31580355       21.13322053        1.53789658
   73      1      24.85157437        3.52629124       14.78279714
   74      1      26.34736760        1.83623568       15.78661201
   75      1       2.66734468       10.67838744       10.63588404
   76      1       2.59442761       23.55059023       11.19757778
   77      1       7.74395463       19.95315239       12.15677610
   78      1       3.86323562       16.84397431        7.78930441
   79      1      23.72829512       26.57774844       16.60966718
   80      1       6.98166466        7.54078336        9.04146060
   81      1      18.80926840        3.99737837       21.35353868
   82      1      11.05220491       18.99178036       26.23615350
   83      1      14.74776104       27.44205384        5.81645523
   84      1       0.74971370       21.96372246       18.58808112
   85      1       5.67222424       17.99104089        2.75515043
   86      1      26.85349027       25.13922040       19.93251428
   87      1       9.60448076       14.99117039        8.00634443
   88      1      25.28823908        3.78922054       24.48230789
   89      1      24.20519610        5.80365160       15.86894752
   90      1      11.77016218        4.51791616        2.42798134
   91      1       0.55274424       12.55521172       15.62983395
   92      1      19.95718477        0.45180633       15.56742877
   93      1      16.11136789       10.25289535       20.36087836
   94      1      22.83719324       14.21089372       24.06950561
   95      1      17.76376285       20.82652128       23.71128230
   96      1      10.15291935       19.79046037       19.78783647
   97      1      12.96060144        9.49152480       11.25430085
   98      1      25.51605559       10.06231050       15.27071205
   99      1      27.53631391        6.22933099       26.30262926
  100      1      22.75984760       11.60819298        8.02596662
  101      1      15.04534790       26.04909658       23.97125267
  102      1       9.00490408       14.69791251       16.85968784
  103      1      18.92542492       22.92366337        5.02917894
  104      1      17.88848998       26.52628717        4.10218974
  105      1       2.91714778       25.45533084        5.80286855
  106      1       9.69055601       10.02172067       18.14978233
  107      1      11.20123670        5.35447723       22.12917675
  108      1      23.78069569        1.43378438        2.60625407
  109      1      16.05575764       24.53458784       27.65147674
  110      1      13.87548431       13.62911185       19.50519401
  111      1       1.79349245       15.70232805        7.48502155
  112      1      11.08438842        6.93062321       16.53141009
  113      1      12.86434083        7.76835919        0.98609737
  114      1      23.73131065       24.41506619        9.52178484
  115      1      17.10659658       14.60223384        5.22970646
  116      1      19.84967865        4.87579779       25.93578583
  117      1       8.61151187        2.39338246       14.73451138
  118      1      18.96466612       18.98344544       12.95901816
  119      1       8.86323228        2.12299014       17.06817630
  120      1      12.53262611        5.91309042       14.81333910
  121      1      18.14288617       15.15910479       27.08432128
  122      1      26.95352923       14.25652797        4.59899241
  123      1       5.84514562       19.23131608       16.48529294
  124      1      14.47165894        6.79830518       21.04910876
  125      1       2.64042717       12.33768283       20.88476523
  126      1      19.64023789        6.31328802        3.73372184
  127      1      11.13452741       13.93459326       16.31602543
  128      1      20.91110677       16.67446476        6.55166470
  129      1      14.98231878       22.22747945       20.92827650
  130      1       5.05174337       11.00831006        7.08776020
  131      1      14.89966491       17.27444453        6.20890405
  132      1      25.05290152       25.12636902       15.29898632
  133      1      16.89178772       22.75095840       22.47126768
  134      1       5.22794799       23.19527105        7.67757486
  135      1       6.08170178       21.00046503        0.34286346
  136      1       9.50263485        2.02623992        4.97200948
  137      1       3.03014910       19.46672213       27.33333784
  138      1       6.30365974       15.02111527       11.20247151
  139      1      12.94094740       15.88846227        3.72541239
  140      1       9.61604599       24.49495138       26.10708438
  141      1      26.84073692        0.63206167       13.79263521
  142      1       9.16258259        9.69746021       25.60648743
  143      1       3.88191911        9.01197706        6.87763493
  144      1      16.93587420       23.62941712       11.16780290
  145      1      21.61813734        8.60369623        1.02155669
  146      1       1.83394450       21.87498125        5.97674414
  147      1      11.41265856       26.92373063       10.26672322
  148      1      13.68449082        1.93002912       11.96932464
  149      1       7.34775323        1.17772547        7.91630282
  150      1       0.39960499       12.15052874        0.60606044
  151      1       0.09409612        9.14798417        2.40406044
  152      1      15.45849463       20.65640581        4.75315141
  153      1       7.80326794       25.63063917        3.65607971
  154      1      14.09429032       14.39001348       23.39819834
  155      1      24.81068477       17.61302230       19.28665588
  156      1       2.08467148       24.90208843        1.72232323
  157      1       8.72180343        8.30421322        5.44955520
  158      1       1.29031572       14.16656408       12.23937529
  159      1       2.12175961        6.90020400       26.37981477
  160      1       4.28380728       20.58575247       17.92512998
  161      1       5.54380308       16.36615541       18.47329552
  162      1       5.04227524        1.12850941       13.78720847
  163      1      27.44923106        7.07220929       14.33940166
  164      1      12.84785976       15.12133804        9.57292504
  165      1      19.43790909       23.59218626       26.70734743
  166      1       5.86294213       15.26437140       14.88913526
  167      1      11.07141313       18.63122147       17.92830591
  168      1      14.70431459       18.33027878        9.85943426
  169      1      26.60618924        7.24211464        3.01991457
  170      1      11.51407847       24.53604802        2.76276100
  171      1      20.64755740       15.32523102       12.06265366
  172      1       7.39680997       17.93740259        9.26673932
  173      1       1.75359964       14.46952266       21.29320721
  174      1      16.30643276        9.24997931        6.31654553
  175      1       2.25669765       21.13074504        3.72030817
  176      1      18.09029945       13.57125884        8.55273898
  177      1      25.75104349       23.31590877       22.60788775
  178      1      11.56280315       18.21854181        7.92403448
  179      1      25.56336652       18.07082525        4.06824146
  180      1       8.27474585       25.22637613       19.00292209
  181      1      22.68814933       20.97670102       18.77675219
  182      1      15.40344622       21.78226311        2.75270418
  183      1      21.12920832       26.88016990        2.94134896
  184      1      24.97376226        1.47802674       19.38847992
  185      1      21.91238960        8.33704079        6.15705191
  186      1       0.84833188       23.35368690       26.26372595
  187      1      12.59838782       18.44729314       22.55869300
  188      1      17.45877351       22.60326027       27.40065250
  189      1      14.90374438        5.58171583        6.06772902
  190      1      14.07723565       25.67139238       12.45298339
  191      1      10.80874238        3.09193219       22.00258941
  192      1      25.75648234       25.26719566       24.07788683
  193      1      21.80662356        0.98501989        1.61346166
  194      1      10.26749059        3.55523891       26.73029538
  195      1      18.10808723       24.71334204       17.42223907
  196      1      21.40127997       20.56676003       16.96659115
  197      1      16.33477757       26.01911518       12.74635691
  198      1       3.39155465       26.88124710       16.44684554
  199      1       1.22733790       18.07238437       10.21027009
  200      1       3.99311501       15.94787013       26.19864961
  201      1      16.01683923        5.79728420       19.40509545
  202      1      21.97139817       20.49200517       11.21805399
  203      1       3.76043683       24.85869937        3.49102626
  204      1      18.27707352        5.73909200       12.33302481
  205      1       9.14664511       10.59490700        1.86462931
  206      1      26.80195730        5.50997066       21.30514967
  207      1      26.27216717        7.91609962       18.31953749
  208      1      26.87095140        4.87099234       13.20726657
  209      1      12.93970765        8.99659561       25.11298395
  210      1       4.70322097        9.28577774       22.35838007
  211      1      24.80642171       22.20212384       26.76145668
  212      1       0.18378638       17.86377973        4.69741465
  213      1      23.21901937       16.68188453       20.97141533
  214      1      13.20719542       25.93632720       18.08928768
  215      1      14.16710072       15.29097603       21.18843489
  216      1      26.26960834       15.96847491        0.99490878
  217      1       4.87254697        3.19271134       26.41935255
  218      1       3.81582186       18.63673256        6.35170327
  219      1      20.48981199       10.70949779       23.79414405
  220      1       9.91938524       22.37378389       27.23401490
  221      1      11.39202717       26.02049237       25.46632951
  222      1       1.74226769       12.29677116       13.60150793
  223      1       9.78230682        8.87938374       16.11926636
  224      1      17.28490764        3.79520234       19.56634810
  225      1      16.56139310       11.40568302       12.93332682
  226      1      25.54480458       14.39473686        2.60722533
  227      1       6.14933491        5.97776914        0.12521116
  228      1      13.65969047       12.07717676       23.00012648
  229      1      26.75345521       20.20330988       21.63633201
  230      1       7.61064445        5.62023353       10.26523907
  231      1      22.45165434       19.78668880       13.50545616
  232      1       4.38881850       12.16571601        2.33402682
  233      1       1.15739365       19.03168990       21.64463223
  234      1      21.38863819       16.08167890       14.10844649
  235      1       1.79053407       27.04534371       18.23402752
  236      1      17.06920555       24.93744109       23.59144483
  237      1      20.06528783       24.02650578        1.29113377
  238      1      14.18582503        6.14207006       11.42398237
  239      1      22.29640466       25.18200326       17.93368464
  240      1      14.67372135        9.97260859       23.68704613
  241      1      19.52777879        7.85295483        5.40405838
  242      1       5.43063909       18.69737531       23.73423360
  243      1      24.85226472        2.74488082        0.90153146
  244      1      12.06852746       12.86889390        9.58722937
  245      1       6.88606164       24.96720355        7.52835683
  246      1      19.00401026        5.09134887        7.12293522
  247      1      12.11893273        3.68718456       15.82965104
  248      1      22.53852381        9.81807583       11.62444804
  249      1       1.41929865       18.83331297       16.11382796
  250      1      16.08639424       14.16841762       26.59874357
  251      1       3.00407911        1.15176081        3.76679419
  252      1       5.17382186       13.11043089        0.26251342
  253      1       5.75247323       23.46988106       21.52428566
  254      1      11.83893612        6.85407121       25.47741734
  255      1       0.99470051       15.75576114        5.22794724
  256      1      24.26291071        0.28975498        7.88512266
  257      1      24.64460339        5.17617149        7.77231689
  258      1      15.46744939       27.62278506        9.60944098
  259      1      23.39007812       18.15434162        1.44044926
  260      1      21.20533974       19.94840920       20.33680775
  261      1      25.55567617       16.70242632       24.55721606
  262      1      24.90793591        1.26344605       26.64401081
  263      1      19.96638561       16.88444009       24.09895786
  264      1      12.83454947       18.77100912        1.41060992
  265      1      17.48479776       21.24519908        6.13958695
  266      1       7.53773247       26.63810835       10.75910850
  267      1       9.37030903       24.98608660       21.04730587
  268      1       6.96193840       19.94390356        8.22098044
  269      1       5.43605742       21.50436223        9.34346994
  270      1      16.34784378        3.71860399        9.40163573
  271      1       4.90486677       10.93045118       11.64894220
  272      1      21.79789383       11.99175501       20.42874293
  273      1      16.02828226       21.52321470       11.71877848
  274      1       0.01993384        9.83446306        0.12979618
  275      1      22.25944432        3.79696564        5.48743406
  276      1      17.82079669        7.25203780       19.17020498
  277      1       4.89055734       17.15632121       21.97662102
  278      1       8.92781927       22.90739367       10.56327160
  279      1      20.35611177       24.70790007       16.36219939
  280      1       9.61228953        9.66242206        7.13499295
  281      1      26.77009644        0.83731057       22.32757812
  282      1       2.00155456        4.97879194        4.26714424
  283      1      20.91437831        1.13756024       26.02546403
  284      1       2.60139021        5.84934907       17.65159396
  285      1      22.79247970        7.69148172       14.83419252
  286      1      15.50872575       12.61641038       11.19821821
  287      1       4.38937859       14.69541087       24.25991605
  288      1       1.45266106       10.29879197       24.31618657
  289      1      21.45141651       25.37818207       21.60884500
  290      1      10.39057824       11.24297076       21.56801653
  291      1       4.08026260        4.09622792       16.62061619
  292      1       2.89785198       20.63740594       21.73578249
  293      1      23.45506485       25.71380311       27.19943147
  294      1      20.68545929        1.01682858       19.41471622
  295      1       0.11840200       14.07952605       23.02289582
  296      1      17.89189474       17.54732482       21.27673124
  297      1      14.28866341       15.04887221        0.24027871
  298      1       0.55615393        8.44277753       23.32926073
  299      1       4.78817504       27.08618416        0.58898407
  300      1      19.38251843       25.42309340        8.38419990
  301      1      14.64423759       14.69201233        2.49194221
  302      1       7.24094833       11.05587125       25.64199675
  303      1      17.24235100        4.38559332        1.56973730
  304      1      19.96537633        7.15813868       22.62568769
  305      1      16.96293999       23.66409775       15.55940849
  306      1       4.08464849        9.91835185        2.03617159
  307      1       1.54766314       20.30435768        9.49078612
  308      1       9.46582758        0.84617800        7.06024563
  309      1      24.91622755        1.08681265        5.81441156
  310      1      20.19771593       16.92559889       18.24537938
  311      1       0.96146000        2.99792940       27.62422691
  312      1       3.11642350       10.98393248       22.78767219
  313      1      23.80674106       22.18014193       23.01249908
  314      1       1.37329638        1.64856602       18.76216095
  315      1      14.88553907       27.51603321       17.48118741
  316      1      13.25115671       21.47199313        5.43989311
  317      1      25.64820295       18.95708880       11.95818665
  318      1      24.63489370       18.44756966        9.79417978
  319      1       4.25828135       24.74577210       12.37902284
  320      1       7.75878302       24.31384437       13.63917751
  321      1      12.54474359       17.65673868       24.85043289
  322      1       2.03752545        9.34696503        5.52904862
  323      1      20.30807647       12.99576943       12.27108503
  324      1       9.90724943        0.72970741       19.94072030
  325      1      23.92708333       22.63814296        8.03720718
  326      1       8.30965098       26.44306129       12.85442003
  327      1      23.44509349        5.98862680       11.51623051
  328      1      14.80321521        7.76214657        5.23969370
  329      1      21.64093941       22.36323493        7.62057050
  330      1      23.77186023       16.26261106       13.94823171
  331      1       3.77621595        5.18832838       12.55359270
  332      1      22.60541970       18.76901909       21.84590442
  333      1       0.67528619        3.78578094       21.90385304
  334      1      10.92781085        2.28861440       14.25529999
  335      1      26.24282953       21.17958788       11.82867782
  336      1      19.63771253       20.45921936       11.19095385
  337      1      24.84826623        5.17884192       22.61302780
  338      1      19.88868026        4.42596636       11.00069229
  339      1      19.06063434       19.72004180        7.10488567
  340      1       8.79142649       13.07045716       13.39416236
  341      1      11.43974486       11.06971250        1.92817937
  342      1      18.73392302       19.18067831       27.06109973
  343      1      26.93126755       15.83103952       15.42238648
  344      1       3.54542235       25.85958291       23.97500517
  345      1      10.12534397       21.99789274       19.14324079
  346      1      24.09300902       10.92391289        0.86247426
  347      1      13.47782450        5.13534316       25.07827363
  348      1      25.88351050        8.61459954       13.47580153
  349      1      26.24340240        9.58668855        6.92784270
  350      1      18.21612586        1.14821411        7.26941396
  351      1      26.83990499       22.92267418        3.33615578
  352      1       8.10644364        0.30227058       26.39461370
  353      1      12.91922274        2.33905266        8.23982511
  354      1      19.75170755        8.97696120       25.47259750
  355      1      16.11929104       14.90963006       24.35049320
  356      1      19.73858001       12.45118096       10.01759016
  357      1      18.21527599       13.26166830       19.20059467
  358      1      22.64395628       18.80954815       25.64946122
  359      1      25.85108664       25.28869530        9.98069705
  360      1      15.11667167        4.40470808        0.66723484
  361      1      12.37347691        3.04575720       25.68688007
  362      1      10.17116386       20.43674124        2.72467197
  363      1      26.13874877       24.72980222       12.13343449
  364      1      16.17833710        1.16798863        2.08472300
  365      1      18.98092685        0.76478523       17.77422983
  366      1       6.61871350        6.75027995       24.02001161
  367      1       6.66214634       15.71257992       21.70229262
  368      1       8.38948354       25.88790057       27.55149664
  369      1      15.58821722       20.07850178       18.03309449
  370      1      10.85555190       27.49940889       23.67970474
  371      1      26.94723057        3.73700191        1.47076851
  372      1      23.15716988        5.75318152       18.00847213
  373      1      14.33831819       12.65481183        3.50640897
  374      1      16.81083477       15.47980149        2.99481864
  375      1       6.22944619       14.50461767       19.72640857
  376      1      26.12993272       20.49039362        6.44757711
  377      1       9.03912546        8.36823235       19.78971574
  378      1       3.94696728        7.34277646       13.58237874
  379      1      27.05001329       12.80143008        9.50277999
  380      1      24.77408559       19.92661609       18.44275656
  381      1      12.74191439       22.31473791        9.48073375
  382      1      13.05380422       23.70142624       21.25729379
  383      1      23.92546300       10.49485112        9.79878931
  384      1      18.12460810       11.36297818       20.79213623
  385      1      14.32632398       20.58691016       16.08872234
  386      1       5.84342410       19.70699912        6.20656109
  387      1      27.07219107       19.76782343        0.84024713
  388      1       4.16689923       17.76798117       19.87866281
  389      1       1.05549608       10.91826459       17.33770400
  390      1      11.12380814       22.31812445        1.71790485
  391      1       1.61101353       17.62912968       23.51726240
  392      1       3.74965523       27.26068416        7.14100410
  393      1      26.46587720       21.51214657       15.37206261
  394      1       7.34653944        0.43090031       14.26074422
  395      1       4.54667689       27.18377013        3.04498495
  396      1       5.48329307        3.50509632       13.08615899
  397      1       5.63202414       15.33638473        7.30418589
  398      1       6.30972281        0.04432494       20.90547438
  399      1      27.09478115       17.83948695       16.58835733
  400      1       9.03262122       18.40751783       10.90166793
  401      1       7.87664267        1.28637721       10.22153090
  402      1       1.79110967        4.16286318       13.19818193
  403      1       5.67822719        3.32127354        4.06471805
  404      1       7.40248212        8.26344380       13.02519749
  405      1       1.04889146        7.46849337        8.67425693
  406      1       2.71580940        9.67387334       16.10317743
  407      1      25.28375199        2.22756296       10.43664152
  408      1      19.32293921       26.74635276       10.39576717
  409      1      18.41298969        2.78129459       10.41034993
  410      1       7.54780017        5.39196090       17.90086349
  411      1      18.33532862       17.21155039       25.83180678
  412      1      11.86146280       10.88612713       18.35348545
  413      1       6.16403263       25.19510834        0.22417727
  414      1      14.52227068       21.30397605       23.83444095
  415      1       3.09619367       15.62479731       12.24293702
  416      1      12.21353310       14.24714917       27.11012566
  417      1      21.62887908        1.51411461       10.71062976
  418      1      23.00265988        0.02757424       12.98448976
  419      1      10.63916933       26.40892832       12.67241981
  420      1       6.60129351       10.53634653       21.76656652
  421      1       0.61455229       12.43233022        4.11477766
  422      1       7.73658714        9.77196515        3.79939463
  423      1      19.84947725       23.24315225        8.93345893
  424      1      20.71239425        8.46617755       10.67976547
  425      1      22.40581461       24.13384630        0.99443343
  426      1      17.26871472       20.76369196       26.00846047
  427      1      12.77357570       18.46345047       11.17876204
  428      1       3.37747988       25.05333386       14.76930944
  429      1       5.83454378       12.98726603        4.02565501
  430      1       7.40176182       13.01786705       26.94141310
  431      1      24.51096237       22.79734783       14.82985638
  432      1      22.75438971       22.85234088       11.27545477
  433      1       3.56166294        3.31668602       24.40008374
  434      1       0.62767347       22.79443527       16.43411538
  435      1      21.10753909       25.79463622        6.74299734
  436      1       8.43273546       24.93908672        9.39936083
  437      1      15.98271418       23.85617028        8.88375742
  438      1      12.98128924       25.40482877        1.10793453
  439      1      20.73447004       13.10623962       16.69032029
  440      1       3.82684319        7.93254114       17.15135793
  441      1      17.23867176       25.21878624        7.45571374
  442      1      17.27502352       15.77831582        8.70546304
  443      1      10.10505244        5.08582375        0.84327565
  444      1      15.33163086       14.92318702       11.94105191
  445      1      11.00408089        9.09849856       12.56232537
  446      1       4.37854475       22.30750530        3.82196612
  447      1       4.93013031        7.03644122        6.02832198
  448      1      24.90082642       19.00244033       24.82638867
  449      1       6.46263175       27.36440875        4.39186300
  450      1       9.39352179       27.38829685       17.74558985
  451      1      27.56456561       26.70807817        4.07147683
  452      1      19.61666145        9.32151288        0.07317887
  453      1       1.95723750       22.88417265        0.56606150
  454      1       5.93212247       10.84767098       19.50184403
  455      1       0.58202088       21.63314048        2.02938509
  456      1      17.33186777       11.95067997       17.35210622
  457      1      11.18361701       24.28720244       13.72329014
  458      1       4.63234317       15.23595729        0.68470749
  459      1      22.01956510        3.97310947       12.16228573
  460      1      20.12488133        5.57258291       15.38160541
  461      1      19.79845216       12.87248712        1.86888004
  462      1       4.38114729       11.46373999       15.75543120
  463      1       5.28542138       27.52633674       24.48598440
  464      1      13.22901655       15.11457412       13.16282932
  465      1      23.14264308       22.78159381       25.14337427
  466      1      17.09034253        9.29303621       11.95646633
  467      1      24.61500229       20.19829963        4.68441990
  468      1      21.85246552        2.64552182       22.68391661
  469      1       7.77681208       16.41823171        7.50822618
  470      1       5.33865203        6.86611882        3.70989373
  471      1      25.63034708       11.66820299       25.06731212
  472      1      22.87639153        1.64636457        4.85730320
  473      1      22.50473387       11.98445919       15.41697633
  474      1      27.59131874       21.94029083       22.99725868
  475      1      11.44827308       21.27557358       25.87919125
  476      1      15.71065207        2.26071972       20.22643519
  477      1       7.73918751       11.44539843       18.14148786
  478      1      22.79473994       12.30714591       27.22573230
  479      1      11.83274748        1.30894789        4.51798083
  480      1      12.19180951        4.64108164        8.34377908
  481      1      22.34755075       19.74009772        5.14094254
  482      1      14.63055380       22.97055337       15.48331981
  483      1       6.72157179       14.43963312       23.62354388
  484      1      17.88695546       19.16519489        1.63399527
  485      1      18.68878453       14.97196507        1.73111595
  486      1      24.65802355       25.00143178        6.03673552
  487      1      19.43939549       22.25989079        2.85533942
  488      1      16.10966211        4.90170208       11.61267717
  489      1       9.30484300       17.14735975       16.83061525
  490      1      12.21554238       15.80213860       15.24407237
  491      1      11.95199226       20.33942948       16.44657835
  492      1      27.23570855       15.74036004       13.01046642
  493      1       3.16979431       22.95884392       15.73386844
  494      1      19.09870352       26.12771502        2.11177587
  495      1      17.94086509       22.73804523       18.66445104
  496      1       0.05926442       16.92948141        8.45876891
  497      1      23.50109433       25.12613507       24.94834489
  498      1      20.17565003       27.12579184       24.63902214
  499      1      24.67341222       15.45030538       15.89775200
  500      1      18.82300816       13.35306261        6.30568134
  501      1       6.39011491       22.00234928        2.39482231
  502      1      18.17238293       14.03606984       23.46853815
  503      1       1.62460362       19.39044096       13.64545860
  504      1      22.37750505        0.38815935       15.27842598
  505      1      17.88070595        5.41092745       14.72020993
  506      1      16.04847253       10.05482071       18.00876769
  507      1      22.05553450        6.76454321        9.73180391
  508      1      12.89012696        9.40108779        2.69030702
  509      1      13.61935980        0.05771160       13.55413763
  510      1       3.02883270       15.59719131        4.16894548
  511      1       2.51876013       16.43562105       16.14381102
  512      1       8.66870046        8.09249634       23.82778407
  513      1       7.92727118       16.84754520       26.23807500
  514      1      17.86627749       26.60637694       22.10938142
  515      1      12.69476439        4.79416195        6.07219819
  516      1      13.20062382       23.75323527        4.67153531
  517      1       7.10969878       20.18883011       22.98631610
  518      1       1.36622468       10.17063867       12.54059365
  519      1       9.96514335        5.53292174       18.06893910
  520      1      18.62833927       25.43909145       25.39436605
  521      1      23.18506195        1.99188758        9.06127715
  522      1       3.94149805        5.51868393       10.17929794
  523      1       3.12028951       15.92146470       22.69676736
  524      1       4.10658964       12.23620490       13.52814406
  525      1      16.35199900       17.27773275       24.61830281
  526      1       2.52099886       26.57564734        0.09869381
  527      1      12.89303433       25.99675776       20.55572272
  528      1      20.85012723       18.34984811       14.38395256
  529      1       3.92635013       21.83259925       27.17760017
  530      1       4.64636529        3.31897933        6.17599931
  531      1      14.79488514        8.25890234       12.20973490
  532      1       7.30447194        7.77335900       18.15378797
  533      1       6.47776638        3.33547504        7.57994806
  534      1       4.87728660        8.18972742       24.38745358
  535      1      14.21962032        3.49608039       16.81085621
  536      1       3.24278423        3.68861126        0.50575603
  537      1      23.75091171        6.78180649        3.08610852
  538      1      19.02994794       21.09090259       17.19953220
  539      1      20.52866520       22.93418817       14.59801255
  540      1      23.70471869        3.73955193       19.34524144
  541      1       1.21656096       23.83554053       20.13818339
  542      1      12.92410196       23.01649938       23.57165529
  543      1      13.41842119       23.60434296       13.43403449
  544      1       2.63253728       25.66911983       20.00911882
  545      1       3.01680808        1.57597055        6.12034706
  546      1      24.69422296       11.70463922       22.86581385
  547      1       7.98480974       18.92577255       19.90108932
  548      1      10.92314324       19.29084209        9.92878970
  549      1       4.69109044       22.20033050       24.87351048
  550      1       3.39150943       12.61691931        6.71770304
  551      1      23.86957399        2.39718469       12.66264221
  552      1      17.61133440        6.39320269        2.54195857
  553      1      18.50196262        3.11970973       17.70288045
  554      1      17.56403884        1.83045340       25.18664026
  555      1       6.77821026        3.23365384       22.24412844
  556      1      18.99233486        1.65627600       27.29779371
  557      1      17.76828273        7.96312457        0.81593367
  558      1      23.17111757       23.24998086       19.29598269
  559      1      22.82380511       25.33926299        2.85952027
  560      1       0.11753246        7.40776630       20.13223444
  561      1       7.72362587        4.75884372        1.43802343
  562      1       0.68308047       23.72076196       12.63612125
  563      1      20.27635867       16.71031851        2.13259523
  564      1       7.55219340       11.53326952       12.04882553
  565      1      26.83910318       24.27375322        6.74617634
  566      1      26.71573741       13.07386660       19.76012914
  567      1       0.83917694        2.12246393        7.13490296
  568      1      17.36637736        3.30444184        7.17722591
  569      1      27.32079007       24.95351089       16.04214197
  570      1      20.91806798       22.04239177       25.61560806
  571      1      13.39983203       15.23051635        5.95572861
  572      1      17.09438797       20.39082201       13.58419699
  573      1      25.52004971        0.29385576       17.43364087
  574      1       2.61254748       26.98663594       22.11099952
  575      1       8.91887808       18.81231124       25.50814519
  576      1       6.26825293       24.42453886        2.38291323
  577      1      13.11079313        7.48241677       17.74035620
  578      1      14.61268679       19.64409760       21.86164170
  579      1      15.70737790        8.53094258       21.97712700
  580      1      27.15277649       21.57474504        9.69930263
  581      1      21.26239975       18.75431988       23.75921808
  582      1      23.28579274       23.80412812        4.54194939
  583      1       6.68607259       21.07795589       20.77086991
  584      1      24.43806566       15.94873630       10.11492060
  585      1      20.64144439        6.86770896       24.86981451
  586      1      14.61585985        2.07089015        9.75004484
  587      1      25.86489423        5.79708638       11.16381348
  588      1      13.55652956        9.80925698       15.15220325
  589      1      17.20317526        4.75265388       22.96754181
  590      1      21.39779594       20.15855434        7.26286238
  591      1      18.69974554       16.79514744       12.05194113
  592      1       4.90885642       14.39307049       12.98657068
  593      1      11.02970856       14.76959292        3.06430296
  594      1      20.90861718       20.33043457        3.24567191
  595      1      17.84061450       27.66054693        0.73603099
  596      1      25.37789791       26.82299824        4.66484613
  597      1       0.19847491        4.96587609       17.52025997
  598      1       7.37827963        4.37381708       14.11141201
  599      1       8.90407291        4.43032589       25.07480470
  600      1       7.51198688       14.21265692        2.98854308
  601      1      11.75300201       15.92845069        7.74229171
  602      1      12.04781739        1.88737706       23.64571667
  603      1      17.56198541        4.21442147       25.20700776
  604      1      13.70162456        6.31649023        9.18870027
  605      1       3.56150967       12.22993294       26.50468348
  606      1      17.58601955        1.79910928       12.32440708
  607      1      27.22581778       17.10515263       18.88376195
  608      1      27.63887829       26.67091035       25.07281013
  609      1      16.23495652        6.84491010       15.76598931
  610      1      25.85083683       26.43061888       21.71498382
  611      1       4.49591462       12.72563912       19.42291761
  612      1      19.49927015        9.15995258       16.42080464
  613      1      25.41916917       23.29614155       20.14605712
  614      1      11.52930351       26.55747282        4.80274731
  615      1      18.00181756       10.45537493        9.96755250
  616      1       2.08512543       19.45994751       25.12656550
  617      1      13.64946053       26.19432857       10.20679717
  618      1       9.03477394       20.83667811        7.35014506
  619      1       1.98300962       19.93576286        7.18220291
  620      1      10.75150293       19.87688196       22.18849622
  621      1       6.88934990       22.81462667       16.95483264
  622      1      11.95306720        9.58665571        7.21042173
  623      1       5.79383641        0.92495114       26.67740305
  624      1      16.87085139       15.91132889       13.35581739
  625      1      15.20995645       11.42635439        7.15252248
  626      1      22.64481059        3.90896115        7.81334604
  627      1       5.82581598        4.25727577        9.60681157
  628      1      15.99682144       16.65233531       20.24221217
  629      1      10.67669952       22.03845663       23.40365200
  630      1      16.16076707       17.70522902        2.23292262
  631      1      20.62591639       13.56610957       19.11128177
  632      1      24.37594009        6.39619257        0.75474911
  633      1       0.94048640       14.64181765       16.69624066
  634      1       1.27807551        2.84405964       24.02943111
  635      1      18.36472404       21.82344444       15.09587263
  636      1      16.91568694       26.46151505       26.65719007
  637      1       5.68388404       17.65988311       25.98641939
  638      1       9.07061678        8.83964838        0.12831186
  639      1      23.61713377       22.10009522        1.17851423
  640      1      27.50049190        3.92930116       25.58593861
  641      1      10.99719336        1.23323371        8.91136286
  642      1       9.14204834       15.11717068        4.43207970
  643      1       4.63990688       20.11831004       20.14903340
  644      1       1.36183572        2.69163929       11.16601744
  645      1      14.51091747       27.12525596       21.85702719
  646      1      19.32854590       13.75000329       25.55749437
  647      1      21.33737231       15.77321202       27.47314063
  648      1      12.32724369       15.24194215       24.86667979
  649      1      21.56702524       18.20605887       16.76697460
  650      1      20.12645030        6.51877252       19.07355407
  651      1      26.90978207        9.65640506       11.70455160
  652      1       5.23529255       14.02783400        9.27136937
  653      1      25.30468098       12.02733546       18.20279274
  654      1       8.07708825       20.89786543        3.61942274
  655      1       2.02789545       12.79612326        2.27136510
  656      1      11.86903699       13.07075594        5.93689407
  657      1       6.65234269       16.05971630        1.80294315
  658      1      26.22200443       20.37477106       26.29990837
  659      1       7.89493075       22.66499747       19.05947076
  660      1      16.24927550        7.56770983       26.68936798
  661      1      19.39574201       18.53539264        3.32720045
  662      1       0.94521808       16.24647144        0.74292132
  663      1       1.17247345       25.34819313       14.21716742
  664      1      17.12719596        9.81838053        2.42255470
  665      1      15.00336305       14.53347780       17.60228495
  666      1      11.99363714       12.65518789        3.58399305
  667      1      13.07831885       19.82058220       13.00042812
  668      1      21.15347090        9.07967154       22.10851927
  669      1      20.74671545        5.00828961        8.83422794
  670      1      24.08147683        7.55012687       19.21974838
  671      1       8.49307066       11.73156567        6.82831863
  672      1       7.57347575       13.62863323       15.28733379
  673      1      16.38555662       27.34628870        7.49968346
  674      1       1.55732033       12.82569146       10.24234884
  675      1      25.68868392       11.54481063       10.92708975
  676      1       8.21580922        4.82086839        7.05993709
  677      1      20.36700960        4.69960387       17.59088110
  678      1      10.44231557       18.62834084        0.94845872
  679      1       1.95551857       22.76748328       22.08176394
  680      1       3.37610645        2.45701559       19.76599587
  681      1      12.62973449        8.68607460        5.05451490
  682      1      19.93139253        1.96228023       21.59738589
  683      1      15.33334481       23.86498261        3.77150183
  684      1      23.30018717        9.73791198       15.91782656
  685      1       2.30064464        8.82742417        3.19445660
  686      1      22.44572002       10.16886125        2.58231058
  687      1       4.23544824       12.31034380       24.29501593
  688      1      20.91868170       26.27406918       12.27974156
  689      1       5.27668516        8.60916282       18.87585590
  690      1      16.92980246       15.38490464       18.53130334
  691      1      20.94824669       10.24325184        7.22072388
  692      1      15.61587715        5.30185632       26.21600444
  693      1      18.96825034       17.81089844        5.73017374
  694      1       1.90364833       25.51308715       25.70020154
  695      1      21.35661879        6.53475005        2.16196847
  696      1      23.53550180        8.16396247       27.12929448
  697      1      19.02734531        0.69481833        5.14670238
  698      1      20.97370534       11.78822206        3.65728834
  699      1      23.50356836        8.31368809       21.64881051
  700      1      21.15967238       27.60862981        5.15730008
  701      1      25.05130351        8.74831161        8.73888445
  702      1      10.73867067       23.11367562       21.04889411
  703      1      10.49600151        6.76736438       12.07275955
  704      1      22.36745175       21.57845991       15.04412683
  705      1      19.29493711       15.83089846       22.08144786
  706      1       0.23133422        3.12146072        3.59038630
  707      1      10.79341135       26.76401755       21.39111586
  708      1      15.11818373       19.30405876       14.34422402
  709      1      16.42884808       27.59487657       20.54786629
  710      1      23.32006617        4.45962900       25.61487796
  711      1      14.52444630       17.41619625        0.42734007
  712      1       8.71046509        0.56300776       24.11842596
  713      1       5.46805661       17.70631985       14.59350335
  714      1       2.43934123        6.49224068       19.92381740
  715      1      16.32016843       20.13621314        9.83614908
  716      1      10.19544027       19.04441682        6.26292772
  717      1       1.34876131       27.52564865       13.41107586
  718      1      11.32569862       10.71359078       25.47071334
  719      1      25.43636722       19.40746279       16.07331891
  720      1       2.01096106       20.00976689       18.04200974
  721      1      19.14440174        2.62626959        3.80305687
  722      1       3.72684315       10.09297144       27.35272757
  723      1      24.03453753        4.81626309        4.30353399
  724      1      12.28384813       11.84244558       27.40684533
  725      1      10.09387773       13.38378757       20.26622657
  726      1      23.32991078        8.84275553        4.29659680
  727      1      13.69411572        1.96078590        5.96271775
  728      1      23.42677894        7.29880763        7.91887014
  729      1       0.13970503       16.05162028       24.37184147
  730      1      26.72027267        2.69755972        5.63772578
  731      1       0.43074216       21.21989266       25.15568026
  732      1      26.28702864        4.40685742       19.31206490
  733      1       7.25752817       17.93942229       17.85769157
  734      1       1.47285088       11.55903684        6.00721451
  735      1      19.19196064        2.16040647       14.18103263
  736      1       7.71499657        1.85454548       20.40979285
  737      1      20.92789223       14.33520958        6.45722734
  738      1      12.81598741       11.69474778        7.57769620
  739      1      13.81169473       18.74601037        7.78525438
  740      1      23.18045316       14.50480045        2.86761248
  741      1      19.15434781       11.47260821       15.97519415
  742      1       8.24832448       13.62356180       18.82844030
  743      1      22.93609006        6.78663030       25.25578856
  744      1       7.07457350       21.81305171       24.67404158
  745      1       3.35218074       21.33480585       10.65072251
  746      1       0.97119853        0.50142170       23.51515827
  747      1       6.05531638        8.74009003        2.50782760
  748      1       5.72634075       17.28984357       10.79084515
  749      1       9.99528011       26.23675480        6.54474202
  750      1      18.47779744       19.41775828        9.39793805
  751      1       9.22196983        1.74391190        0.07147659
  752      1      22.64908881        2.64308279       15.75908433
  753      1       3.79076422       20.29031601       23.86019240
  754      1      15.73154308        3.39124040        5.42123078
  755      1       7.12847810       18.88316039        4.40129542
  756      1      23.14247920       17.05421585       27.12659864
  757      1       3.79579785       20.22427472       12.71658641
  758      1      25.62340338        9.62983893       26.46493808
  759      1       8.78653520        8.96420202        9.39447080
  760      1       0.11837024       17.96638742       12.27504213
  761      1       3.16780915       17.18751454       13.97535812
  762      1      11.04946678       19.66874702       14.38608647
  763      1       7.42994584        1.67222394        3.65348674
  764      1       2.60378699       15.03903448        1.96334447
  765      1       3.74278892       17.75665538        4.12955640
  766      1      19.19978171       18.65912398       19.62311619
  767      1      14.60748904       18.13614551       25.86914198
  768      1      18.62767745       23.02763709       20.87774457
  769      1      17.08261843       16.51708058        6.51301713
  770      1      20.71877223        8.82198033       18.43983149
  771      1      24.41045822       13.14066475       16.27349059
  772      1       8.70797664       23.40281876       24.15279630
  773      1      14.01228621        1.92757907       18.60060159
  774      1      20.13538028        2.68825024        1.55277654
  775      1      10.44847311        7.21515046        9.74169497
  776      1      20.61306290        5.53655807       21.13781221
  777      1      15.56520057        2.97569658       12.86959346
  778      1      13.26848024       11.84026076       11.26566894
  779      1      19.43325977        9.08952041        8.74204510
  780      1       7.40301926       26.92090608       16.24278240
  781      1       4.78743706        7.68367916       10.02046226
  782      1      24.54636157       26.82218884        2.52665854
  783      1       3.63759375        5.99372996        0.48744221
  784      1       3.72425718        5.13466873       22.98866489
  785      1      13.71027114       23.59158374       17.60904575
  786      1       7.18534227        6.92037954        6.79306551
  787      1       9.66650945       13.63696151        6.20648562
  788      1       4.96656031        1.94272185       23.26594169
  789      1      27.25144499        2.15380585       20.29169568
  790      1      22.08787316       15.37240389       10.03108877
  791      1      21.50310242       13.48861940        8.65584100
  792      1       6.50942939       12.01760033       23.63421559
  793      1      23.95698481       12.20535705        6.04670235
  794      1       6.13334510       26.18464564       19.22157045
  795      1      27.48052400       25.05570226        2.44172050
  796      1      25.02915596       15.16152834       12.28881861
  797      1      25.73940747       13.65554462       21.94056219
  798      1      15.14441792       25.43308109        2.14181327
  799      1       4.51685261       14.24826196        5.42497947
  800      1      10.11521550        6.23136981       24.04327393
  801      1      10.68202321        7.52189661        4.36422909
  802      1      26.45223766        6.49443632       16.42092607
  803      1      20.10564303       20.86272866       23.68872759
  804      1       9.49762475       22.93742864       12.91423046
  805      1      21.17101377       23.63211326        5.74974319
  806      1       1.82894646        9.23207786       26.48444186
  807      1      10.71891148        3.41471257       17.70393667
  808      1      21.06158665        3.69024178       14.29877591
  809      1      21.02428618       20.09415877       26.95392684
  810      1      27.56319396        6.27053842        4.94938006
  811      1       8.54041738       17.04125778       21.51493902
  812      1      15.85253760        5.99780325        8.19653371
  813      1      16.53188884       11.83578960       26.79207756
  814      1       8.34229659       14.70221206       25.27585441
  815      1       7.61899839       24.68821544       22.52530270
  816      1      26.42212424        7.87546915       24.84184437
  817      1      14.53550103       10.97833089        0.06587270
  818      1      11.60250849        3.09401463       12.15335843
  819      1      10.86981609       12.38967899       14.46291787
  820      1       1.68462665       18.21037826       19.56877300
  821      1      13.81918878       21.09803012        7.68552568
  822      1       0.76416207       11.32604951       19.85760854
  823      1       0.74414693        3.61790656        9.01238632
  824      1      10.27477124       14.72406420        0.86525219
  825      1      27.35420706       23.86394460        8.97000393
  826      1       6.15001302        5.22835243       15.95359474
  827      1       0.86967455        0.90490773        2.98064613
  828      1       5.89888827        5.63039858       22.08689706
  829      1       8.80660650        9.62878899       11.75091399
  830      1      26.64205434       10.91546333        3.45497871
  831      1      19.59141229       11.25503857        5.49303919
  832      1       2.19944952        5.39353433        8.52527806
  833      1      15.38622609        0.16337955       15.12708890
  834      1       4.14423824        0.92831396       21.36774063
  835      1      25.87105913       12.26523574        1.69388413
  836      1       8.37390678       24.63688715        5.70735525
  837      1       2.66169795        4.44457927       21.01127576
  838      1       8.04159064       24.59389926       15.90850442
  839      1      22.04025527       26.71368867       19.76132974
  840      1      22.27567934       23.19534128       21.46775725
  841      1      10.33030574       15.37813185       21.61650969
  842      1       5.24677579       18.82855217        0.40923128
  843      1      12.28228868       10.18730144       20.47599091
  844      1      24.97750768       15.66898593       26.61383535
  845      1      13.30258876       24.82417768       24.92037493
  846      1       2.20523344        0.50483753       11.21101195
  847      1      24.35010281       15.50713138       22.76303689
  848      1       5.88791728       23.19475374       12.80080307
  849      1      19.14622791        7.97362053       12.47501389
  850      1      17.50513824       21.46979951        1.79806886
  851      1      15.58826229        2.51101427       15.18098870
  852      1      16.72467101       10.68981171       24.65531047
  853      1      15.15648447       13.35013323        5.64876645
  854      1      11.66467426        2.35359379       19.60777862
  855      1      11.49261417       22.57165468       17.28069260
  856      1       1.90501074        8.47032856       14.14063044
  857      1      23.21495829        0.78270965       22.85729912
  858      1       6.87728138       21.04520468       15.42173073
  859      1       9.01943150        4.34132241        4.98878609
  860      1      10.47106014       24.37140899       15.98092544
  861      1       3.33536276        5.23853655        6.35547292
  862      1      14.27399339        1.50157854       23.19760968
  863      1      20.22229501       10.22358517       20.29739014
  864      1      18.55303329       12.37209767       13.78448301
  865      1      27.24080167       26.33728476       17.90333594
  866      1       6.79899469        8.18548256        0.32113781
  867      1      11.04723925        5.28462647        4.49116003
  868      1      22.75785358        0.30582138       27.21652380
  869      1      23.66721389       17.07080520       17.27329524
  870      1      20.98121857        4.69982687        0.60063851
  871      1       5.24276984        8.60541700       12.11243280
  872      1      25.02986161       10.05866663       21.30351253
  873      1      13.94350644       16.40016322       16.68940652
  874      1       3.41710688       17.02344416       10.19658494
  875      1       4.43672000       15.24805956       16.73836334
  876      1      21.84482484       13.80697064        0.99528307
  877      1       2.96415945        0.84040305       14.82611658
  878      1       3.13426673        6.59646920        2.80304431
  879      1      26.10491095       27.62080764        9.30618902
  880      1       6.78245472       11.32266190       15.97362619
  881      1      15.09474806       18.48247710        4.21230944
  882      1      22.96545467        9.27453639       18.17794966
  883      1      13.78962048        5.84540357        1.95204345
  884      1       5.22815885       26.27981774       10.82529911
  885      1       2.74095689        7.05018255       24.07087904
  886      1       0.36909557       27.63333638        7.90492262
  887      1       1.92957982       24.52305604        9.18203282
  888      1      18.81243131       17.17447747        9.74720373
  889      1      22.45847448       16.68488514        3.03071475
  890      1       1.52202606       15.52242190       26.28725131
  891      1      12.29709234       16.62855261       21.01985549
  892      1      13.65172278       21.86038660       11.82673558
  893      1      25.90871109       25.76302792        0.61213517
  894      1      12.17995744       27.20457491       27.40259239
  895      1       2.85482739       13.81700508        8.64472301
  896      1      19.72427452       26.13674642       14.43593507
  897      1       2.96215903        8.83797616        9.05652775
  898      1      22.83389791        4.41142113       21.45452681
  899      1      25.21015003       26.55320699       13.38909474
  900      1      17.53244750        7.22617863       22.93985980
  901      1      19.20743785       22.80438893       11.10892334
  902      1      17.87835153       24.81432352       13.79875988
  903      1      26.68408405        5.99388384        0.92022093
  904      1      17.78855273       14.34580624       14.78860835
  905      1      14.24519368        8.77612156       27.03533214
  906      1      17.11780111       26.89599936       18.28725966
  907      1      23.94871794       27.60497178       20.78873818
  908      1       0.61998008        2.80083518       16.75476436
  909      1      11.29255180       26.49172578       16.64729667
  910      1       9.60983411       26.10551126        2.09348747
  911      1      26.76434438        7.82493826       10.14539450
  912      1       6.01176083        2.48162424       10.93743820
  913      1      20.39958711        7.81369545       14.65981382
  914      1      22.09461278       26.46473386       23.57587107
  915      1       6.71038347       11.30108539        5.36464177
  916      1      24.60869384       22.18280361        3.33827446
  917      1      22.22442155       20.21528774        1.31012546
  918      1      26.51799565       10.07282695       17.37244561
  919      1       5.35711524        7.35563932       15.49611436
  920      1      11.31557153       12.10853886       23.54954164
  921      1       8.93487851       20.86464169       13.97060980
  922      1      13.57024178        5.23874324       22.61824076
  923      1      17.52077607        8.51301960       24.95445490
  924      1      17.27674301       24.54677786        5.17102023
  925      1      26.12204475       14.99364090        8.66844897
  926      1       5.75029396       18.79975468       12.55779508
  927      1      11.52838999        0.02037698       14.48612154
  928      1      16.43884054       12.03569680        9.08699484
  929      1      13.66235554        1.27974133       26.73856271
  930      1      17.77135110       19.22367010       17.75530953
  931      1      19.63730672        1.13565851        9.31526977
  932      1       3.53141523       13.10635045       17.26826711
  933      1      20.01539338        4.42446280        5.03133161
  934      1       2.22781831       26.89002928        9.11188191
  935      1      21.01677123       15.70086406       20.21258131
  936      1      15.43246119        7.30889686        3.09770861
  937      1      14.88651948       10.66055566        2.34905124
  938      1      22.41176051       11.94681026       12.96196071
  939      1      14.73024010       11.77866971       14.47137251
  940      1       8.15456264       22.21974492        5.59241119
  941      1      15.80345223       17.17738719       15.21139624
  942      1       5.72228000       21.98722894        5.77763727
  943      1      12.62631676        7.79270221       19.98556661
  944      1      12.23203872        2.15332716        2.35300314
  945      1      26.09764789        4.24411473        9.45620620
  946      1      15.45363702        0.52768965       25.31103278
  947      1      12.47240631        8.32781041        9.18957871
  948      1      15.59296968       22.30671474       18.74404473
  949      1      21.39418031        3.22934131       24.95376104
  950      1      25.27715974       20.71334710        8.56600687
  951      1      10.41994596       21.57128777        9.27423406
  952      1       8.68920585        9.49740621       21.82899690
  953      1      17.99569864        7.49781181        7.46064957
  954      1       9.93977995        2.76317196       10.32967964
  955      1      23.67939056        8.02000870       12.76011763
  956      1      21.04684663       15.18854937       25.20075954
  957      1      13.47683107       21.72952351       27.01563576
  958      1      13.61654417       24.47399146        8.63008358
  959      1      15.18446647       16.00132114        9.84890970
  960      1       9.63223691       13.50840401        9.82661172
  961      1      21.04772575       17.10763239        8.90315003
  962      1      26.92653085        2.37174002       12.23409059
  963      1       6.09310462       27.12045929        6.82923808
  964      1       8.66255113       14.68024915       11.68298386
  965      1       8.02610621       20.89142919       26.58318511
  966      1       7.38072391        8.91768062       15.46015304
  967      1      18.34886255       11.28851548        0.76017346
  968      1       4.52751126        7.49013802       20.75518911
  969      1      11.76808007       13.20119960       18.56434018
  970      1      26.38181701       21.24760758       19.56415722
  971      1       0.33812934        8.06144525        6.48022718
  972      1      18.33681938       11.67882403       23.12883035
  973      1       4.62186945       22.93928832       17.64397624
  974      1      11.23646514       10.04808984       14.68305434
  975      1      25.11398720        1.49929534       24.05831513
  976      1      20.90992246       23.81894202       12.38035808
  977      1      25.90985406       12.28580228       14.72647502
  978      1      17.18418632       27.40427691       11.21912240
  979      1       0.94839699        0.68922332        0.59735503
  980      1      14.17681661       11.59689019       20.75056176
  981      1      23.22227243       25.90546627        7.70244642
  982      1      15.17127707        3.46836754       22.25809563
  983      1      24.23146319       13.47891343       25.85008777
  984      1      12.86866319       17.41585183       18.71359956
  985      1      25.82761982        4.85090395        5.76746228
  986      1      14.84187986        5.78709003       17.38426299
  987      1      11.57798763       19.90163760        4.58513508
  988      1       3.56355172        3.26728730        2.90151188
  989      1       8.63437239       17.36187471        5.46492975
  990      1      25.79266982       13.59944955        6.52290477
  991      1       3.97520235       23.67700820       23.15463214
  992      1      17.70941912       16.92218272       16.82008679
  993      1      13.30351187       25.53823512        6.29122472
  994      1      22.34379083       13.33555295        4.75456779
  995      1      24.38730423       18.57467265       13.92780925
  996      1      19.25970994       25.26595748       20.88518378
  997      1      12.22907535        5.35678808       12.54414091
  998      1      14.31003840        2.18718926        1.08200373
  999      1      18.03436888        9.66899512        4.71332488
