run_id:  1009
total_energy:   -3025.971763962026
  1000 atoms
  1 atom types
  0.0   27.664  xlo xhi
  0.0   27.664  ylo yhi
  0.0   27.664  zlo zhi

 Atoms

    0      1       0.03171554       18.74294501        6.76606017
    1      1      14.70509574       18.60073769       19.59150378
    2      1      19.85326826       15.23383122       15.87191052
    3      1      17.39633067        8.35440302       17.16765943
    4      1      12.88536275       12.80605434       13.33383330
    5      1       8.82302449       16.66394292        0.69909917
    6      1      13.87305184       23.99565368       26.98618150
    7      1      24.74153589       22.87179785       12.55545572
    8      1       0.64414231       26.00059783        6.13846591
    9      1      26.75589372       27.52450635       27.07616260
   10      1      26.22594985       24.03645443       26.52695571
   11      1      24.72405129       12.81816019       12.64972043
   12      1      12.04054656       16.22815428       11.51484231
   13      1       8.77848896        2.84048047       23.39372732
   14      1      22.30631197       12.22525706       22.83537497
   15      1      16.03695317       21.60999493        8.00908912
   16      1      22.72639216       17.42275022        5.22154736
   17      1       5.63459435        9.40168953       26.30158123
   18      1      25.00415427       10.28639709        5.07808313
   19      1       8.63640512       12.93534746        1.23226911
   20      1      25.62741532       18.08221159        1.79823987
   21      1       2.97557467       23.63026797        7.23097509
   22      1       4.98020231        2.29598836       17.97793818
   23      1      10.39015207       14.38783177       23.83547596
   24      1       0.39976326       14.97613177       19.06560848
   25      1      27.42362967        9.49958266       21.19406514
   26      1      12.91326392       18.21135258        3.58028390
   27      1      22.33436489       19.09967288        9.29830819
   28      1      17.71531438        3.25079557       15.57561833
   29      1      27.29776761       22.37339387        5.62632305
   30      1       4.84451210       21.69110332       14.24840152
   31      1      16.69004037       18.83661128       22.83507623
   32      1      16.94681448        2.94603397        3.36777376
   33      1       9.82175354       16.61709420       12.26015462
   34      1       8.22237561        6.06219347       12.55101840
   35      1      15.73682966       27.20373940        3.59955889
   36      1      10.62603449        6.59378523       20.12349901
   37      1       7.09665224       26.93377534       23.03096000
   38      1      21.87663196        2.76042431       18.09388059
   39      1      10.72483687        0.54220430        1.30679446
   40      1      10.80415459        7.15679226       27.66297675
   41      1      10.63708873       25.33953696        8.65460397
   42      1       4.48589916        0.62553485       11.52872757
   43      1       8.89911257       18.81008705       23.11998068
   44      1       1.35903297       13.16606496       26.42044329
   45      1      23.73243932       11.00765601       19.49898313
   46      1      14.36228081        7.65958582       14.48907323
   47      1       6.61483122        5.00639444       25.70344543
   48      1      14.99077944       20.38215888       25.90423756
   49      1       9.76240994        4.82360978        8.98272227
   50      1       1.38056771       18.51525901        1.07519778
   51      1       7.36642734        2.40170318        1.30002978
   52      1      24.45299380       19.94707048       22.67031336
   53      1       0.16218793       21.46448900       13.49878928
   54      1       6.90316309       21.89301582       11.05719899
   55      1       4.64742895       24.44070017       19.59206393
   56      1       1.88869519       18.82636917        3.35536316
   57      1       5.75045259       11.73070767        9.28611765
   58      1      27.17653920       11.72276369        7.35840662
   59      1      23.34507713        4.42047215        0.22002423
   60      1       2.38271124        3.02356879       15.26623394
   61      1      18.78167940        0.74544894       23.32271714
   62      1       8.11780076       11.68876089        9.27671741
   63      1       5.42054635       27.54655870       17.41368165
   64      1      20.40582031       21.76608730       21.55629491
   65      1       7.07407896        5.12156066        3.62729766
   66      1      15.99007452       13.21538849       15.96944904
   67      1      24.44557952        7.23391090       23.55741084
   68      1       0.19368285       12.29538223       24.61013192
   69      1       7.16198398        2.97528096       18.44837858
   70      1      10.43103882       17.34622101       14.58509381
   71      1      13.74108889        9.71190497       17.37162900
   72      1      13.31594744       21.11614139        1.54103969
   73      1      24.86235591        3.51799092       14.77569839
   74      1      26.34537083        1.82773961       15.79020179
   75      1       2.66599580       10.65358539       10.63254290
   76      1       2.59621849       23.52910208       11.21633298
   77      1       7.78077942       19.94417619       12.10786965
   78      1       3.86091679       16.81859546        7.76627162
   79      1      23.71220855       26.56277525       16.62254369
   80      1       6.98747494        7.51198996        9.04463964
   81      1      18.80517614        4.02125175       21.37535829
   82      1      11.04963412       18.97344017       26.22301704
   83      1      14.74696456       27.42218553        5.81264805
   84      1       0.77372590       22.20560644       19.12950387
   85      1       5.66527724       17.97278902        2.75278265
   86      1      26.64154741       25.25106342       19.95607834
   87      1       9.60629021       14.96412357        7.99242010
   88      1      25.28353571        3.80633010       24.49221168
   89      1      24.21372378        5.79842604       15.86524124
   90      1      11.76687890        4.51270624        2.43655549
   91      1       0.55247141       12.55788736       15.63076843
   92      1      20.00154347        0.46538514       15.62325095
   93      1      16.10874725       10.25735186       20.35722861
   94      1      22.82894545       14.22230880       24.06013761
   95      1      17.73338571       20.82486610       23.70976695
   96      1      10.15136219       19.78633780       19.77854068
   97      1      12.97312877        9.46135651       11.25574358
   98      1      25.51702048       10.06737899       15.27421211
   99      1      27.53516850        6.23149731       26.30392423
  100      1      22.75837431       11.60131241        8.02880357
  101      1      15.03769489       26.05837520       23.99628456
  102      1       9.01297128       14.67125427       16.84682491
  103      1      18.93051109       22.90631387        5.02178085
  104      1      17.88954889       26.51855022        4.10254961
  105      1       2.91100212       25.44347988        5.81165855
  106      1       9.68913894       10.01484223       18.14776828
  107      1      11.20015049        5.36088216       22.13377909
  108      1      23.78330569        1.43624194        2.61520527
  109      1      16.04874452       24.53279927       27.66193583
  110      1      13.87157501       13.63062789       19.49463018
  111      1       1.79011175       15.67833651        7.46892913
  112      1      11.09328144        6.91659088       16.53027124
  113      1      12.86002064        7.76226212        0.98783720
  114      1      23.73065289       24.39492128        9.53616471
  115      1      17.10557051       14.58689720        5.22660127
  116      1      19.84299470        4.89552806       25.95295337
  117      1       8.65842826        2.36674808       14.72600893
  118      1      18.94710090       19.03559564       12.97264489
  119      1       8.88975276        2.11389684       17.06152082
  120      1      12.54633550        5.88577232       14.82162715
  121      1      18.13146414       15.15314235       27.07555183
  122      1      26.94680312       14.24414204        4.59441581
  123      1       6.00946089       19.17176364       16.35967682
  124      1      14.47023930        6.80435914       21.05330042
  125      1       2.63070523       12.37325997       20.87777924
  126      1      19.63669512        6.30556301        3.74664227
  127      1      11.14390767       13.91524376       16.30553413
  128      1      20.91183801       16.66634600        6.55568926
  129      1      14.96554695       22.21504229       20.93316956
  130      1       5.04970057       10.98793266        7.07709873
  131      1      14.89926201       17.25074343        6.19594246
  132      1      25.07311286       25.10251782       15.34687289
  133      1      16.86319882       22.75470262       22.47754625
  134      1       5.22593760       23.18301974        7.67928256
  135      1       6.12130435       20.94113453        0.38363918
  136      1       9.50043490        2.01061604        4.97595026
  137      1       2.99253661       19.47246340       27.32614470
  138      1       6.33183717       14.99054845       11.16936241
  139      1      12.93434137       15.87079335        3.71759461
  140      1       9.64248995       24.48629763       26.13255637
  141      1      26.82945386        0.60907550       13.80730450
  142      1       9.15189445        9.70337017       25.59974528
  143      1       3.87857137        8.99333757        6.87549779
  144      1      16.96878468       23.49926223       11.04364431
  145      1      21.61241989        8.60078567        1.02988553
  146      1       1.82989487       21.86688564        5.98099672
  147      1      11.43704587       26.89815034       10.26622011
  148      1      13.74404417        1.84065518       11.99556438
  149      1       7.35132778        1.16139117        7.92239619
  150      1       0.39463220       12.14621396        0.60485894
  151      1       0.09116213        9.14056461        2.40213083
  152      1      15.45610174       20.63432268        4.74045337
  153      1       7.79861369       25.61977689        3.66082920
  154      1      14.08165132       14.38968945       23.38739201
  155      1      24.79206190       17.68272243       19.26479808
  156      1       2.06685181       24.89873970        1.72820218
  157      1       8.72095149        8.28554614        5.44823249
  158      1       1.28438102       14.14786133       12.22669563
  159      1       2.11993134        6.90259184       26.37780582
  160      1       4.44152933       20.52898255       17.66026157
  161      1       5.52652200       16.37791515       18.42603401
  162      1       5.05115790        1.10787424       13.80466197
  163      1      27.44876678        7.06577823       14.34095860
  164      1      12.85109432       15.09494574        9.56306646
  165      1      19.41454471       23.59240311       26.72244460
  166      1       5.89173005       15.19315172       14.85380782
  167      1      11.07607178       18.62652230       17.91866007
  168      1      14.70274124       18.29697670        9.84239452
  169      1      26.60544864        7.23490309        3.02571139
  170      1      11.51173763       24.52657612        2.77177932
  171      1      20.63557558       15.33829291       12.05911230
  172      1       7.41268393       17.91367243        9.23721238
  173      1       1.73390699       14.51220318       21.28351027
  174      1      16.30606561        9.23335601        6.32409097
  175      1       2.24629829       21.12487286        3.72307065
  176      1      18.09243995       13.56017207        8.55375551
  177      1      25.54415981       23.29292241       22.61720379
  178      1      11.56209996       18.19053746        7.90973369
  179      1      25.55128247       18.06054961        4.07663772
  180      1       8.28940353       25.22052348       18.99834688
  181      1      22.61925958       21.01128342       18.74606446
  182      1      15.40100678       21.76861677        2.74945508
  183      1      21.12876509       26.88371745        2.94609136
  184      1      24.96021105        1.48498738       19.39108271
  185      1      21.90888901        8.32722683        6.16463602
  186      1       0.80950751       23.33550451       26.26206230
  187      1      12.58042023       18.44279820       22.54795864
  188      1      17.44334305       22.59712216       27.40574853
  189      1      14.90646890        5.56439547        6.08624185
  190      1      14.20793106       25.59501097       12.39139376
  191      1      10.81471182        3.09812916       22.00897571
  192      1      25.68469737       25.25658436       24.05521529
  193      1      21.80627461        0.99262680        1.62578493
  194      1      10.26186251        3.55777843       26.73776100
  195      1      18.05357295       24.75082334       17.50830961
  196      1      21.32825588       20.63527716       16.92690085
  197      1      16.46935156       25.42532689       12.34048993
  198      1       3.38773633       26.86285835       16.47371807
  199      1       1.22778854       18.05079006       10.18237443
  200      1       3.97928822       15.95929347       26.17678217
  201      1      16.01881831        5.80791266       19.41170072
  202      1      21.97221130       20.54263872       11.22546724
  203      1       3.74936362       24.84729825        3.49609530
  204      1      18.28692393        5.70109291       12.34367297
  205      1       9.13955549       10.59000082        1.85631480
  206      1      26.80413414        5.51789825       21.31221214
  207      1      26.27308060        7.92240543       18.32031840
  208      1      26.87800420        4.86169854       13.21320618
  209      1      12.93317864        8.99786648       25.11181042
  210      1       4.69154096        9.29678696       22.35244435
  211      1      24.75715230       22.20570824       26.77138136
  212      1       0.17684666       17.85354161        4.69309992
  213      1      23.20316351       16.69843367       20.94297168
  214      1      13.20690808       25.92626222       18.12495827
  215      1      14.15468009       15.29287273       21.17773878
  216      1      26.25560696       15.96082450        0.99570533
  217      1       4.86507170        3.19612567       26.42445025
  218      1       3.81197698       18.62296991        6.34500254
  219      1      20.48560714       10.72259188       23.79456822
  220      1       9.95055008       22.35881439       27.25711104
  221      1      11.39834032       26.02550020       25.48075213
  222      1       1.74011504       12.28497782       13.59713033
  223      1       9.78924745        8.86480698       16.11980090
  224      1      17.29239702        3.81547547       19.58580549
  225      1      16.56669923       11.39302702       12.93359775
  226      1      25.53525996       14.38476381        2.60552558
  227      1       6.14371110        5.97699454        0.12518880
  228      1      13.64949443       12.07842617       22.99338987
  229      1      26.65315272       20.13012299       21.60748898
  230      1       7.61728614        5.59198862       10.27069233
  231      1      22.43274642       19.84303165       13.50978549
  232      1       4.38639139       12.16173936        2.32147571
  233      1       2.04289971       20.68669377       20.53140063
  234      1      21.37157620       16.11157055       14.10060093
  235      1       1.76904261       27.03504000       18.25888701
  236      1      17.05431164       24.93915279       23.61284098
  237      1      20.05421883       24.02599458        1.29771659
  238      1      14.20508935        6.09730076       11.44408022
  239      1      22.22449997       25.22209426       17.94185915
  240      1      14.66677613        9.97752394       23.68568314
  241      1      19.52327355        7.84422103        5.41531560
  242      1       5.33672209       18.79778911       23.70529030
  243      1      24.85162924        2.74356276        0.90340955
  244      1      12.07549061       12.84189417        9.58090257
  245      1       6.88412793       24.95709365        7.52930825
  246      1      19.00053766        5.07324847        7.14531085
  247      1      12.15937783        3.66082765       15.83719310
  248      1      22.53253998        9.81149188       11.62655435
  249      1       1.39223597       18.63893468       15.83060046
  250      1      16.07654038       14.16213563       26.58967598
  251      1       3.00028894        1.13984216        3.76827603
  252      1       5.16673871       13.11349740        0.24824218
  253      1       5.94554218       23.51457223       21.45080699
  254      1      11.83064142        6.85734807       25.48183090
  255      1       0.98814819       15.74329285        5.21593016
  256      1      24.26215111        0.27888451        7.89519102
  257      1      24.64327694        5.16238888        7.78415118
  258      1      15.47176174       27.57348393        9.58453793
  259      1      23.37462861       18.14691234        1.44186517
  260      1      21.15379633       19.96421214       20.30542230
  261      1      25.53582091       16.70976481       24.55824236
  262      1      24.90894799        1.25875458       26.64649582
  263      1      19.94314169       16.88257939       24.08440256
  264      1      12.82782925       18.75497248        1.40198848
  265      1      17.49494617       21.21429522        6.11391718
  266      1       7.55663865       26.62943230       10.76954428
  267      1       9.42713708       24.99500808       21.02580403
  268      1       6.96412517       19.92470720        8.21060531
  269      1       5.43995662       21.48782531        9.33799352
  270      1      16.36505966        3.66147236        9.44604411
  271      1       4.90738992       10.89554697       11.63516766
  272      1      21.79562043       12.00699700       20.42324191
  273      1      16.00089845       21.48700460       11.68266222
  274      1       0.01701873        9.83180225        0.12673569
  275      1      22.25573390        3.79151818        5.50003406
  276      1      17.81138868        7.27272615       19.17555550
  277      1       4.81320126       17.24138532       21.93201041
  278      1       8.93964893       22.90381597       10.53909882
  279      1      20.24985143       24.80672292       16.37932876
  280      1       9.61455613        9.63800113        7.13752438
  281      1      26.74799973        0.85108846       22.34429843
  282      1       2.00039273        4.96803634        4.27044909
  283      1      20.90726634        1.15520146       26.04398057
  284      1       2.60421534        5.83705046       17.65419588
  285      1      22.79510295        7.69115448       14.83842363
  286      1      15.51508630       12.60019017       11.19632375
  287      1       4.35285500       14.73321732       24.21668667
  288      1       1.44713605       10.30935961       24.30975836
  289      1      21.39536114       25.40142068       21.62388064
  290      1      10.38225462       11.24404409       21.56060696
  291      1       4.08426582        4.08101553       16.62151884
  292      1       3.04489730       21.95069484       22.32468404
  293      1      23.43540781       25.72062287       27.20924401
  294      1      20.67719399        1.04536907       19.45192775
  295      1       0.11206893       14.10351393       23.03030719
  296      1      17.87785337       17.56659240       21.24822372
  297      1      14.27965913       15.03735113        0.23297854
  298      1       0.55398536        8.44999803       23.32367782
  299      1       4.78285712       27.07138817        0.59263368
  300      1      19.39187458       25.39746031        8.36681015
  301      1      14.63828054       14.67693923        2.48470063
  302      1       7.22847000       11.06644656       25.62246381
  303      1      17.23988290        4.38094585        1.58289938
  304      1      19.96258164        7.17540656       22.63365967
  305      1      16.82334836       23.90238044       15.59169208
  306      1       4.07974748        9.91359143        2.02777462
  307      1       1.54538135       20.29321408        9.49016147
  308      1       9.47034879        0.83109579        7.06668673
  309      1      24.91426491        1.07953053        5.82467669
  310      1      20.17092713       16.96175394       18.21204940
  311      1       0.95632730        2.99125589       27.62545896
  312      1       3.10391676       11.00111769       22.77437715
  313      1      23.64878560       22.16211741       23.02914834
  314      1       1.36666298        1.64271845       18.77360602
  315      1      14.89161071       27.50191420       17.57032786
  316      1      13.24651356       21.44853995        5.42789074
  317      1      25.62498853       18.96698256       11.94879577
  318      1      24.61728303       18.45958593        9.78838057
  319      1       4.26768313       24.72270189       12.39233344
  320      1       7.78702548       24.31072324       13.62131632
  321      1      12.53925184       17.64674066       24.83816015
  322      1       2.03316582        9.33240657        5.52840633
  323      1      20.30477641       13.00365814       12.27169740
  324      1       9.92437257        0.73062376       19.93799548
  325      1      23.94689949       22.63464999        8.03246584
  326      1       8.35294244       26.44631358       12.85766301
  327      1      23.44712699        5.98376351       11.52725230
  328      1      14.80391065        7.74297058        5.24981546
  329      1      21.66620764       22.35274329        7.60869592
  330      1      23.75040535       16.28713067       13.93679742
  331      1       3.78093483        5.16329472       12.56066848
  332      1      22.54740031       18.77327140       21.81633124
  333      1       0.67430844        3.78523940       21.91096153
  334      1      10.99744875        2.23653287       14.26735237
  335      1      26.22713892       21.19073767       11.85814910
  336      1      19.64267992       20.47664091       11.19106197
  337      1      24.84797425        5.19134237       22.61971344
  338      1      19.88564145        4.35702924       11.02594241
  339      1      19.06762807       19.70524885        7.10223885
  340      1       8.80879875       13.03530668       13.37472397
  341      1      11.43302927       11.05732557        1.92185925
  342      1      18.71647199       19.17045670       27.05878513
  343      1      26.87414301       15.82512006       15.41482002
  344      1       3.60542631       25.88804259       23.98203735
  345      1      10.14767597       21.99296361       19.14164552
  346      1      24.08260231       10.92221717        0.86137701
  347      1      13.47232933        5.14163962       25.08975299
  348      1      25.88317283        8.61259297       13.48163509
  349      1      26.23807939        9.57218607        6.93016756
  350      1      18.21509506        1.12940641        7.27577880
  351      1      26.82340453       22.92202746        3.35085125
  352      1       8.11514167        0.29699952       26.40309131
  353      1      12.93525925        2.31314401        8.25987242
  354      1      19.74778580        8.99061803       25.47908905
  355      1      16.10699781       14.90504357       24.34081566
  356      1      19.74005491       12.44696580       10.02054400
  357      1      18.20772632       13.27283031       19.19371595
  358      1      22.60429096       18.79971599       25.63917772
  359      1      25.84663708       25.27898619       10.00694091
  360      1      15.11485521        4.40392597        0.67847352
  361      1      12.36964343        3.05264111       25.70186943
  362      1      10.16925827       20.41821784        2.72482014
  363      1      26.13756778       24.72774928       12.16579619
  364      1      16.17491730        1.16547537        2.09823428
  365      1      18.98962465        0.79237405       17.81508414
  366      1       6.61239333        6.75618550       24.01809002
  367      1       6.59911805       15.77328597       21.67738181
  368      1       8.39434667       25.87950794       27.56014175
  369      1      15.56963468       20.08736012       18.01739037
  370      1      10.86371447       27.50534158       23.69020489
  371      1      26.94594626        3.73271588        1.47340642
  372      1      23.16495985        5.75207461       18.00202723
  373      1      14.33388201       12.64134046        3.50193070
  374      1      16.80336367       15.46601017        2.99060529
  375      1       6.20503704       14.52861815       19.70769885
  376      1      26.12935997       20.48102370        6.45352871
  377      1       9.03706763        8.36367186       19.78890495
  378      1       3.94846534        7.32168397       13.58322953
  379      1      27.04391268       12.78983547        9.49987681
  380      1      24.73474215       19.99569485       18.41366120
  381      1      12.74334452       22.29105942        9.45845654
  382      1      13.06541026       23.70259255       21.27530911
  383      1      23.92160908       10.48520959        9.80120753
  384      1      18.12048987       11.37133161       20.78629377
  385      1      14.31834918       20.60861825       16.07613549
  386      1       5.84012293       19.69237087        6.20058571
  387      1      27.03937471       19.75921468        0.86018550
  388      1       4.11747522       17.81056746       19.78819424
  389      1       1.06228321       10.92941254       17.33964733
  390      1      11.13417764       22.30147452        1.73561610
  391      1       1.52241607       17.66263147       23.53527985
  392      1       3.74557712       27.24792440        7.15052849
  393      1      26.51053036       21.53516181       15.46843784
  394      1       7.36987446        0.41873666       14.26589255
  395      1       4.54069028       27.16817293        3.04629144
  396      1       5.49482752        3.48226278       13.09643994
  397      1       5.63217931       15.31317045        7.28588339
  398      1       6.32515657        0.04269673       20.91010687
  399      1      27.05866853       17.84045274       16.54260413
  400      1       9.05202563       18.38032064       10.86854857
  401      1       7.88532933        1.27150936       10.22763299
  402      1       1.79277629        4.13886404       13.20300698
  403      1       5.67474624        3.31010251        4.06798052
  404      1       7.41004552        8.23368113       13.02688474
  405      1       1.04646962        7.44966396        8.67751683
  406      1       2.71258815        9.65727925       16.10466199
  407      1      25.27620516        2.21027106       10.45542326
  408      1      19.30931104       26.73009808       10.35996716
  409      1      18.39513039        2.68775287       10.48051268
  410      1       7.55703676        5.37956211       17.90131375
  411      1      18.31806524       17.20558443       25.82314110
  412      1      11.85946784       10.88084381       18.34934505
  413      1       6.16685283       25.18329728        0.22820270
  414      1      14.50273879       21.28504973       23.84156006
  415      1       3.12390068       15.56115873       12.16894677
  416      1      12.20385287       14.24072023       27.09943016
  417      1      21.62053934        1.50250172       10.70790264
  418      1      22.93683256       27.65873470       12.97570301
  419      1      10.69475800       26.42553760       12.67552330
  420      1       6.59091982       10.54447195       21.76070173
  421      1       0.61064910       12.42161954        4.11129528
  422      1       7.73721372        9.75690297        3.79379468
  423      1      19.91909411       23.24858783        8.95496540
  424      1      20.71200777        8.44831206       10.68385378
  425      1      22.38994775       24.13804363        1.00564402
  426      1      17.25582509       20.75795918       26.01028243
  427      1      12.78205128       18.44187451       11.16770569
  428      1       3.38574819       25.04105023       14.77593067
  429      1       5.83302048       12.97178551        4.01495612
  430      1       7.39087933       13.02429169       26.92280176
  431      1      24.51523601       22.80233581       14.88366999
  432      1      22.72966461       22.92291397       11.32830073
  433      1       3.56394405        3.31653109       24.39932953
  434      1       0.82760251       22.56140281       16.67995513
  435      1      21.11312276       25.78322929        6.73723545
  436      1       8.43601777       24.93635314        9.39409127
  437      1      15.99790787       23.78958014        8.81989049
  438      1      12.97585110       25.39941257        1.11907177
  439      1      20.72964064       13.11868174       16.68329165
  440      1       3.82961200        7.91763921       17.14978999
  441      1      17.25260320       25.18294256        7.43053666
  442      1      17.28123592       15.76805790        8.70597836
  443      1      10.09920318        5.08509666        0.85196474
  444      1      15.33667242       14.91071585       11.93646729
  445      1      11.01667620        9.06455713       12.56346926
  446      1       4.37257944       22.29919055        3.82314490
  447      1       4.92925492        7.01947980        6.02986706
  448      1      24.84856303       19.00611293       24.80781809
  449      1       6.45628076       27.35262384        4.39456256
  450      1       9.41801353       27.38494761       17.73759229
  451      1      27.56031415       26.70226200        4.07942511
  452      1      19.61156704        9.32122155        0.08080814
  453      1       1.90648640       22.88517747        0.58277102
  454      1       5.92312136       10.84876499       19.49736421
  455      1       0.55396975       21.62703547        2.04744269
  456      1      17.32726613       11.95728994       17.34793732
  457      1      11.20698674       24.29606650       13.69906161
  458      1       4.62588876       15.23942738        0.66693566
  459      1      22.03503151        3.97583005       12.18636030
  460      1      20.13816850        5.58160628       15.39135035
  461      1      19.79092689       12.86654368        1.86935659
  462      1       4.38851884       11.43295738       15.74780041
  463      1       5.30630089       27.55808227       24.50070923
  464      1      13.23274385       15.09401163       13.15341203
  465      1      23.07330699       22.78647154       25.16898293
  466      1      17.09670430        9.27401803       11.96138886
  467      1      24.60947986       20.19280936        4.69125671
  468      1      21.83364347        2.67971700       22.70718992
  469      1       7.78002256       16.39096412        7.48745547
  470      1       5.33519287        6.85744019        3.70955919
  471      1      25.62469370       11.67508708       25.06284557
  472      1      22.87573918        1.64252189        4.86719244
  473      1      22.49735750       11.98276054       15.41433794
  474      1      27.31635481       21.87010232       23.05635480
  475      1      11.45809166       21.25778763       25.88339093
  476      1      15.71741385        2.28784341       20.25734062
  477      1       7.73453188       11.43927667       18.14064540
  478      1      22.78619481       12.30449162       27.21999658
  479      1      11.83459007        1.29776329        4.52865513
  480      1      12.20383483        4.60987019        8.36089155
  481      1      22.34444130       19.72660492        5.14120102
  482      1      14.57781075       23.01073803       15.49836653
  483      1       6.68743500       14.47627567       23.58936370
  484      1      17.87843142       19.15293650        1.63252169
  485      1      18.67802692       14.96282821        1.72395350
  486      1      24.65609197       24.99538943        6.04713373
  487      1      19.43576077       22.24935995        2.85065505
  488      1      16.11848576        4.83854725       11.65692362
  489      1       9.33537910       17.11676384       16.82304760
  490      1      12.21868411       15.78691808       15.23071040
  491      1      11.95011269       20.33228016       16.43089815
  492      1      27.22278375       15.73107198       13.00192777
  493      1       3.24349846       22.94523900       15.72087871
  494      1      19.10046230       26.12972728        2.11637172
  495      1      17.88339058       22.74968398       18.65084943
  496      1       0.05952198       16.91115823        8.43884011
  497      1      23.44973826       25.13014593       24.96193680
  498      1      20.15724194       27.14032852       24.66785553
  499      1      24.62388443       15.46493675       15.89668232
  500      1      18.82299059       13.34314123        6.30741852
  501      1       6.40387597       21.98222675        2.41411110
  502      1      18.16019089       14.04073111       23.45229665
  503      1       1.52934768       19.41945199       13.53361876
  504      1      22.37440250        0.36691638       15.28318195
  505      1      17.89303537        5.39862783       14.73348404
  506      1      16.04651100       10.05836804       18.00481534
  507      1      22.04595045        6.73972965        9.74283181
  508      1      12.88469000        9.39075826        2.69223666
  509      1      13.80431450       27.58550382       13.56799002
  510      1       3.02420625       15.58540061        4.16068322
  511      1       2.52902583       16.31758837       16.02997262
  512      1       8.66173117        8.09679201       23.82428807
  513      1       7.90161971       16.85057616       26.21177058
  514      1      17.85649204       26.61939785       22.14793033
  515      1      12.69698972        4.77259909        6.08827602
  516      1      13.20039412       23.73461365        4.66989004
  517      1       7.06797871       20.20611619       22.97035929
  518      1       1.36481851       10.15627347       12.54022635
  519      1       9.97481317        5.52370792       18.06881981
  520      1      18.61468097       25.44352200       25.41317289
  521      1      23.18241063        1.97954928        9.06783935
  522      1       3.94317403        5.49358500       10.18519647
  523      1       3.06594642       15.99043129       22.67496415
  524      1       4.10661621       12.19289781       13.51583160
  525      1      16.33902471       17.27191311       24.60532099
  526      1       2.51561913       26.55793985        0.08987053
  527      1      12.90818758       25.99802489       20.58185526
  528      1      20.83912026       18.38458332       14.37357640
  529      1       3.91283199       21.81790735       27.32869312
  530      1       4.64507836        3.30282078        6.18047103
  531      1      14.80707046        8.22697747       12.21329226
  532      1       7.30530418        7.76268964       18.15446933
  533      1       6.47807937        3.31667281        7.58548153
  534      1       4.86939990        8.19690217       24.37972567
  535      1      14.25807434        3.46776263       16.81995575
  536      1       3.23520191        3.68626454        0.50950797
  537      1      23.74974219        6.77795148        3.09499535
  538      1      18.95561795       21.19693331       17.07380527
  539      1      20.49059630       23.09275273       14.61312164
  540      1      23.71096230        3.75142809       19.35568767
  541      1       0.95003352       24.16542868       20.43475592
  542      1      12.93353186       23.02089199       23.58208947
  543      1      13.41805172       23.60544252       13.40586304
  544      1       2.60677602       25.69230022       20.06146173
  545      1       3.01271329        1.56137889        6.12485538
  546      1      24.69273653       11.72094622       22.85868467
  547      1       7.97503221       18.93912436       19.87178062
  548      1      10.93807861       19.27079840        9.91002174
  549      1       4.92832951       22.29728739       25.14297362
  550      1       3.38940986       12.59768446        6.70772630
  551      1      23.85070374        2.36939258       12.66739163
  552      1      17.60888135        6.38950512        2.55104238
  553      1      18.52954746        3.14635973       17.73234702
  554      1      17.55611348        1.84621553       25.21199250
  555      1       6.79003527        3.24308837       22.23645884
  556      1      18.98542049        1.66625167       27.31785669
  557      1      17.76546685        7.95889543        0.82244259
  558      1      23.06047988       23.27558777       19.29989420
  559      1      22.81999619       25.34187944        2.86693248
  560      1       0.11856162        7.41753113       20.13500361
  561      1       7.71624747        4.75397525        1.43952959
  562      1       0.68259475       23.70572971       12.66424778
  563      1      20.26490382       16.70035441        2.13000652
  564      1       7.56614962       11.49961958       12.03079138
  565      1      26.83455795       24.26470553        6.76246000
  566      1      26.71087185       13.12653697       19.75087031
  567      1       0.83615918        2.10751473        7.14366722
  568      1      17.36452428        3.28488281        7.20207646
  569      1      27.35790163       24.80588253       16.12032798
  570      1      20.86893709       22.03406108       25.62903136
  571      1      13.39779213       15.20888035        5.94599839
  572      1      17.09336435       20.48457386       13.57858777
  573      1      25.50221567        0.29238388       17.42969739
  574      1       2.64992250       27.00778575       22.12716595
  575      1       8.91991559       18.79234415       25.48094794
  576      1       6.26674758       24.40948890        2.38813355
  577      1      13.11709279        7.47293279       17.73984647
  578      1      14.59444557       19.64015523       21.84737677
  579      1      15.70443086        8.53895921       21.97788470
  580      1      27.15284319       21.57132739        9.72437017
  581      1      21.22418292       18.75579809       23.74483654
  582      1      23.28558982       23.80463962        4.54469689
  583      1       6.63038760       21.07620340       20.72258663
  584      1      24.43344996       15.95356740       10.10827530
  585      1      20.63847215        6.88263620       24.87835560
  586      1      14.63520785        2.02134654        9.77116396
  587      1      25.86586498        5.78498393       11.17145172
  588      1      13.56364801        9.79304323       15.15025316
  589      1      17.19986743        4.77085428       22.98698900
  590      1      21.40184139       20.14985515        7.26297420
  591      1      18.68920352       16.82876555       12.06522883
  592      1       4.93821035       14.32893394       12.94639070
  593      1      11.02334357       14.75366936        3.05277797
  594      1      20.90026883       20.31778823        3.24824968
  595      1      17.83810745        0.00053505        0.74967237
  596      1      25.37452923       26.81815602        4.67293938
  597      1       0.19966694        4.96059898       17.52297981
  598      1       7.40182060        4.34647788       14.11394047
  599      1       8.90007116        4.43587933       25.07939483
  600      1       7.50698000       14.19930192        2.97573521
  601      1      11.75370450       15.90085955        7.73278268
  602      1      12.04793366        1.89703358       23.66024602
  603      1      17.55814163        4.22842980       25.22387203
  604      1      13.71655115        6.27964054        9.20910375
  605      1       3.55517246       12.23805672       26.48723984
  606      1      17.58908663        1.64536728       12.39025778
  607      1      27.23024685       17.23072734       18.88032330
  608      1      27.63015239       26.63743090       25.05663948
  609      1      16.24401577        6.83513390       15.77054805
  610      1      25.75299847       26.48249848       21.76436766
  611      1       4.49034831       12.73209673       19.41397845
  612      1      19.49893824        9.16846402       16.41865101
  613      1      25.28074805       23.35571187       20.18302155
  614      1      11.52944208       26.54488182        4.80690260
  615      1      18.00746794       10.44461665        9.97286842
  616      1       2.00438471       19.52325624       25.11436550
  617      1      13.66090761       26.15156727       10.18266570
  618      1       9.03591908       20.81506095        7.34175940
  619      1       1.98084934       19.92462052        7.18032471
  620      1      10.73429327       19.87525934       22.18471538
  621      1       6.98497338       22.80093404       16.90714337
  622      1      11.95688216        9.56047164        7.21523097
  623      1       5.80130443        0.93576891       26.71095126
  624      1      16.86388397       15.92283191       13.35172862
  625      1      15.21146830       11.41052100        7.15167821
  626      1      22.64080182        3.89679039        7.82591584
  627      1       5.82785219        4.23185974        9.61531529
  628      1      15.98505714       16.65645361       20.22717149
  629      1      10.70329701       22.03347107       23.41535150
  630      1      16.15414007       17.68981137        2.22385790
  631      1      20.61825372       13.57724708       19.10135704
  632      1      24.37411770        6.39826066        0.76268049
  633      1       0.88329620       14.65758583       16.67016499
  634      1       1.27906711        2.83543240       24.03415007
  635      1      18.27086424       22.11238051       14.98562503
  636      1      16.90692987       26.46612048       26.67649867
  637      1       5.65721554       17.68337839       25.93646318
  638      1       9.06241326        8.83976903        0.12022736
  639      1      23.59158596       22.10028701        1.19111200
  640      1      27.50137951        3.93013687       25.58869104
  641      1      11.00960358        1.20770872        8.91905971
  642      1       9.13828959       15.09537753        4.42127812
  643      1       4.54534157       20.18838681       19.90837150
  644      1       1.35632250        2.66160049       11.18256281
  645      1      14.50718817       27.14003396       21.89014355
  646      1      19.31910947       13.75109807       25.54406983
  647      1      21.32351594       15.76674816       27.46768427
  648      1      12.31230227       15.23586878       24.85513121
  649      1      21.53352057       18.26591031       16.74774425
  650      1      20.11173428        6.54629551       19.08812177
  651      1      26.90681536        9.64773395       11.70573290
  652      1       5.24320382       14.00072255        9.25043968
  653      1      25.30348920       12.04787183       18.20132075
  654      1       8.08286257       20.87979736        3.63321807
  655      1       2.02461778       12.79051162        2.26733283
  656      1      11.86737067       13.04564176        5.92738793
  657      1       6.64805538       16.04739958        1.79225434
  658      1      26.13980512       20.35677803       26.33524385
  659      1       7.93353653       22.66602905       19.02891978
  660      1      16.24536256        7.57170830       26.69563689
  661      1      19.38731956       18.52368588        3.32745188
  662      1       0.93287559       16.24435618        0.75116759
  663      1       1.16431661       25.28997105       14.27562520
  664      1      17.12179837        9.81203427        2.42780686
  665      1      14.99838317       14.54005727       17.58913485
  666      1      11.98886435       12.64058757        3.57444830
  667      1      13.08701139       19.80947118       12.98492231
  668      1      21.15204087        9.09430437       22.10885311
  669      1      20.73506750        4.97436813        8.86279531
  670      1      24.07912354        7.55761949       19.21812639
  671      1       8.49258197       11.70695182        6.82330467
  672      1       7.59681936       13.58404242       15.27059032
  673      1      16.39267522       27.31125510        7.48233388
  674      1       1.55372441       12.80123212       10.23410399
  675      1      25.68371787       11.53765174       10.92885385
  676      1       8.21927677        4.79923700        7.06644637
  677      1      20.40080922        4.73874183       17.60560333
  678      1      10.43325554       18.61458290        0.93679052
  679      1       1.28067574       23.42391427       22.60138397
  680      1       3.37811675        2.45512965       19.76740410
  681      1      12.63152318        8.66888743        5.05775015
  682      1      19.91675683        1.98662003       21.62783821
  683      1      15.33308468       23.84872659        3.76995011
  684      1      23.30080853        9.74012253       15.91914021
  685      1       2.29758705        8.82040274        3.19194926
  686      1      22.44085234       10.16611791        2.58780117
  687      1       4.21446073       12.34202593       24.27404051
  688      1      20.73930579       26.31508163       12.37068734
  689      1       5.27660215        8.60410156       18.87299617
  690      1      16.92328765       15.39917640       18.51382215
  691      1      20.94702509       10.23540900        7.22624768
  692      1      15.61002543        5.30749252       26.22885721
  693      1      18.96900392       17.79547344        5.73011261
  694      1       1.91598956       25.48521652       25.68178559
  695      1      21.35479371        6.53400812        2.17537322
  696      1      23.53558648        8.16929109       27.13874897
  697      1      19.02662853        0.68749305        5.15305939
  698      1      20.96682719       11.78250124        3.65928477
  699      1      23.50259562        8.32607196       21.64841565
  700      1      21.15970022       27.60477246        5.16271069
  701      1      25.04496703        8.73462829        8.74341357
  702      1      10.76520497       23.10731580       21.04449659
  703      1      10.51199713        6.72887306       12.07797461
  704      1      22.31469358       21.65968132       15.03746498
  705      1      19.27850155       15.84363510       22.05292616
  706      1       0.22900068        3.11146528        3.59343560
  707      1      10.81784098       26.77791576       21.39567220
  708      1      15.12967675       19.34553109       14.33044203
  709      1      16.42636294       27.62903525       20.60895826
  710      1      23.31665726        4.47624713       25.62566104
  711      1      14.51763204       17.40184241        0.41914844
  712      1       8.72203209        0.57607120       24.12788619
  713      1       5.58515637       17.63722429       14.52018238
  714      1       2.43767559        6.49188190       19.92481704
  715      1      16.31429943       20.09394644        9.81605797
  716      1      10.19352166       19.02105498        6.25311700
  717      1       1.33426699       27.48143653       13.44408016
  718      1      11.31702224       10.71457178       25.46391498
  719      1      25.42930253       19.43969253       16.05592704
  720      1       2.15490205       20.10672535       17.33892277
  721      1      19.14175286        2.62337774        3.81718504
  722      1       3.72190106       10.09860060       27.34113239
  723      1      24.03063635        4.81226998        4.31501955
  724      1      12.27602968       11.83694586       27.40201988
  725      1      10.08201336       13.38550580       20.25804601
  726      1      23.32393858        8.83702853        4.30219636
  727      1      13.69830950        1.94325350        5.97705946
  728      1      23.41691987        7.28266155        7.92916678
  729      1       0.13245025       16.05660879       24.41664551
  730      1      26.71981210        2.68711931        5.64429926
  731      1       0.30964860       21.20547610       25.18763127
  732      1      26.29033199        4.40993180       19.32011364
  733      1       7.29720165       17.90606026       17.83434303
  734      1       1.46726336       11.54440105        6.00345705
  735      1      19.22383988        2.14499738       14.22129163
  736      1       7.73038818        1.85268734       20.40736867
  737      1      20.92669771       14.32759715        6.46041069
  738      1      12.81751610       11.67134587        7.57183707
  739      1      13.80805563       18.71357803        7.77065154
  740      1      23.17112939       14.49522406        2.86491042
  741      1      19.15082665       11.48186300       15.97182233
  742      1       8.23433355       13.62478725       18.82249836
  743      1      22.93374872        6.80069093       25.26162599
  744      1       7.19261356       21.77304176       24.72820194
  745      1       3.35835661       21.31287524       10.65025820
  746      1       0.96628506        0.48870585       23.51178068
  747      1       6.05027585        8.73285136        2.50315524
  748      1       5.74844050       17.25958054       10.75092980
  749      1       9.99635667       26.22222447        6.54714088
  750      1      18.48492237       19.41555393        9.39745880
  751      1       9.22504026        1.74213645        0.08111487
  752      1      22.66772857        2.62836364       15.77311400
  753      1       3.76547473       20.49760400       24.04434184
  754      1      15.73332510        3.37534572        5.44118212
  755      1       7.12526138       18.86462625        4.39851742
  756      1      23.12406579       17.05309047       27.12473431
  757      1       3.79571291       20.16905937       12.70061474
  758      1      25.62386669        9.63221805       26.45860887
  759      1       8.79637427        8.93086757        9.39624963
  760      1       0.08450765       17.95021833       12.22285248
  761      1       3.26949718       17.13184604       13.86810140
  762      1      11.06777800       19.65104706       14.36618822
  763      1       7.42479321        1.66040124        3.65520238
  764      1       2.60051948       15.03430886        1.95523021
  765      1       3.73482373       17.74556971        4.12350845
  766      1      19.15780338       18.69563683       19.57387295
  767      1      14.59895013       18.12431852       25.86243468
  768      1      18.57441093       23.03810988       20.86747828
  769      1      17.08360701       16.50172938        6.51097511
  770      1      20.71686677        8.83640784       18.44132449
  771      1      24.39672046       13.14618450       16.26921017
  772      1       8.76718311       23.39726069       24.17536149
  773      1      14.02364715        1.93419015       18.63326835
  774      1      20.13305230        2.69461766        1.56826341
  775      1      10.46023695        7.18247196        9.74602322
  776      1      20.60892742        5.55639126       21.14720653
  777      1      15.60464961        2.88551661       12.90833132
  778      1      13.27640122       11.81410843       11.26094306
  779      1      19.43600435        9.07739779        8.74830339
  780      1       7.41881090       26.91199340       16.24867804
  781      1       4.79075034        7.65644072       10.01968023
  782      1      24.54394847       26.82322789        2.53234717
  783      1       3.63234596        5.99148491        0.48798270
  784      1       3.72235672        5.13674953       22.98850541
  785      1      13.67752348       23.58871461       17.63286197
  786      1       7.18648422        6.89911817        6.79437853
  787      1       9.66491062       13.61082497        6.19419099
  788      1       4.98492198        1.95592288       23.26669102
  789      1      27.24000747        2.15480308       20.29813270
  790      1      22.08417681       15.37429239       10.03085324
  791      1      21.50392972       13.48472689        8.65910318
  792      1       6.48817918       12.04120147       23.61575965
  793      1      23.95294407       12.19596975        6.04684144
  794      1       6.13489546       26.17329149       19.22785252
  795      1      27.46497577       25.05255708        2.44819531
  796      1      25.01255803       15.16512844       12.28537966
  797      1      25.73552516       13.67865805       21.93873100
  798      1      15.13924212       25.42360045        2.15064812
  799      1       4.51166785       14.22961086        5.41212272
  800      1      10.10935814        6.23652623       24.04554483
  801      1      10.68416879        7.50416915        4.36925557
  802      1      26.45670483        6.49376139       16.42514700
  803      1      20.06690167       20.86269584       23.68605278
  804      1       9.52687980       22.94547995       12.87772263
  805      1      21.17615294       23.62046911        5.74370286
  806      1       1.82471459        9.23580753       26.47718583
  807      1      10.74130898        3.40886375       17.70309188
  808      1      21.08286639        3.69293738       14.32242916
  809      1      21.00084226       20.08462657       26.95605521
  810      1      27.56121295        6.25873942        4.95370932
  811      1       8.50763013       17.05809344       21.49321788
  812      1      15.86803437        5.96740064        8.21696650
  813      1      16.52435912       11.83256136       26.79193259
  814      1       8.31399038       14.71042963       25.24882383
  815      1       7.73783181       24.71619650       22.53229765
  816      1      26.42274030        7.88005639       24.84007903
  817      1      14.52838636       10.97482133        0.06611908
  818      1      11.65695918        3.03360663       12.16506270
  819      1      10.88127043       12.36496038       14.45483501
  820      1       1.70000619       18.50054607       19.26661381
  821      1      13.81109971       21.06155680        7.66687283
  822      1       0.75359186       11.36424825       19.85208830
  823      1       0.74226035        3.59632334        9.02651619
  824      1      10.26535184       14.71814875        0.85203567
  825      1      27.35132860       23.85713286        8.98952578
  826      1       6.16077100        5.20773699       15.95331376
  827      1       0.86593806        0.89451769        2.97829924
  828      1       5.89575539        5.63710430       22.08409952
  829      1       8.81821860        9.59131830       11.75183494
  830      1      26.63663945       10.90645084        3.45256487
  831      1      19.58917904       11.24535727        5.49737482
  832      1       2.19767708        5.37260006        8.53277533
  833      1      15.47761754        0.05201911       15.25719279
  834      1       4.16759822        0.94068072       21.37235832
  835      1      25.86487449       12.25755655        1.69216325
  836      1       8.37265891       24.62537613        5.71011574
  837      1       2.65966184        4.44342155       21.01306096
  838      1       8.08661798       24.59865206       15.88528449
  839      1      22.00394058       26.73781334       19.78884016
  840      1      22.16646119       23.20670549       21.47414481
  841      1      10.30287645       15.38663048       21.60329889
  842      1       5.21892479       18.79126529        0.39544082
  843      1      12.27799486       10.18657490       20.47289746
  844      1      24.95981999       15.67106887       26.61343127
  845      1      13.30254617       24.82519533       24.93641959
  846      1       2.20015571        0.47222786       11.23756128
  847      1      24.33741162       15.52479606       22.74956259
  848      1       5.90978135       23.17476711       12.79297107
  849      1      19.14704916        7.94714357       12.47504171
  850      1      17.50038959       21.45812774        1.79700844
  851      1      15.65024820        2.43964499       15.22310034
  852      1      16.71731574       10.69352845       24.65397596
  853      1      15.15577391       13.33253742        5.64399776
  854      1      11.67410383        2.35983381       19.61853903
  855      1      11.48596027       22.56115099       17.26874354
  856      1       1.90590428        8.45554382       14.13987150
  857      1      23.18016129        0.81616890       22.89378015
  858      1       6.97768349       21.03935344       15.35391941
  859      1       9.01812439        4.32549830        4.99252791
  860      1      10.50178433       24.37481997       15.96054306
  861      1       3.33362078        5.22221275        6.36007919
  862      1      14.27393926        1.51720861       23.22357150
  863      1      20.22155267       10.23827938       20.29627578
  864      1      18.54935488       12.37907921       13.78262514
  865      1      27.21003512       26.32758117       17.89961421
  866      1       6.79155741        8.18602948        0.31323924
  867      1      11.04877775        5.26815425        4.50410782
  868      1      22.75250786        0.31537814       27.22670070
  869      1      23.64348591       17.13026570       17.25181247
  870      1      20.98006173        4.70476619        0.61391356
  871      1       5.24965252        8.57608475       12.11058227
  872      1      25.02763127       10.07241587       21.29919475
  873      1      13.94204388       16.40603165       16.66980656
  874      1       3.43049704       17.00952329       10.16079543
  875      1       4.45582600       15.20266357       16.69261742
  876      1      21.83470401       13.80087726        0.99125087
  877      1       2.96257879        0.81557364       14.84198380
  878      1       3.12990761        6.58889580        2.80484312
  879      1      26.09968186       27.60836044        9.32114908
  880      1       6.78904708       11.29621568       15.97003940
  881      1      15.08962984       18.46237033        4.20148146
  882      1      22.96504784        9.28438051       18.17934805
  883      1      13.78520850        5.84269367        1.95969221
  884      1       5.24596333       26.26287528       10.85050962
  885      1       2.73596921        7.05312382       24.06709909
  886      1       0.36436870       27.62012127        7.91786126
  887      1       1.92935857       24.50826295        9.19907575
  888      1      18.81253067       17.17413989        9.75342759
  889      1      22.44587514       16.67384663        3.02942672
  890      1       1.51848427       15.52126334       26.30314851
  891      1      12.28021949       16.62741950       21.00696363
  892      1      13.63652908       21.84850667       11.80901316
  893      1      25.89709960       25.75927784        0.61217866
  894      1      12.18063947       27.20542381       27.41810713
  895      1       2.85532291       13.79530309        8.63740300
  896      1      19.46591485       26.25511194       14.52085527
  897      1       2.96412556        8.81343179        9.05604234
  898      1      22.83204125        4.42968910       21.46285520
  899      1      25.18884067       26.53398391       13.42225516
  900      1      17.52925052        7.24062110       22.94759900
  901      1      19.23709156       22.81352426       11.11724851
  902      1      17.10589458       25.95632775       14.48356904
  903      1      26.68315100        5.99072429        0.92312748
  904      1      17.78301646       14.35687457       14.78452367
  905      1      14.23831374        8.77437882       27.03637304
  906      1      17.12814586       26.92835318       18.37275155
  907      1      23.89417340       27.65715391       20.81597920
  908      1       0.61764996        2.79070786       16.76181272
  909      1      11.32780315       26.48599655       16.64596248
  910      1       9.60707143       26.09940038        2.10277495
  911      1      26.76147406        7.81252840       10.14900528
  912      1       6.01432611        2.45684209       10.94813517
  913      1      20.40134288        7.81809727       14.65945885
  914      1      22.05960992       26.48288831       23.59149631
  915      1       6.70934647       11.28385376        5.35613886
  916      1      24.59630874       22.17812960        3.34588949
  917      1      22.20782952       20.20792216        1.31110336
  918      1      26.51939450       10.08462480       17.37767331
  919      1       5.36120364        7.33499453       15.49575712
  920      1      11.30375266       12.11184458       23.54221708
  921      1       8.98897632       20.86164156       13.90437301
  922      1      13.56736339        5.25081952       22.62848352
  923      1      17.51675245        8.52157127       24.96144984
  924      1      17.28547700       24.52798210        5.15290583
  925      1      26.11642143       14.98564611        8.66471093
  926      1       5.79716584       18.77996552       12.49927130
  927      1      11.66626025       27.64456357       14.48016072
  928      1      16.44312031       12.02139994        9.08567673
  929      1      13.65693203        1.28516947       26.75490428
  930      1      17.75646327       19.28288339       17.68789734
  931      1      19.62342769        1.10926099        9.32545898
  932      1       3.53324812       13.07537582       17.25530630
  933      1      20.01085169        4.41846801        5.04918487
  934      1       2.22161982       26.87535757        9.12600582
  935      1      20.99791735       15.72358126       20.17613497
  936      1      15.42910294        7.30367663        3.10471903
  937      1      14.88040098       10.64918753        2.34783284
  938      1      22.40544668       11.94594114       12.96060330
  939      1      14.73499349       11.76585932       14.46893972
  940      1       8.15342423       22.20673641        5.59786727
  941      1      15.79351732       17.20409577       15.18799218
  942      1       5.71853262       21.97555061        5.77897889
  943      1      12.62587212        7.79188974       19.98409114
  944      1      12.23114136        2.14999794        2.36596147
  945      1      26.09473338        4.22546045        9.46967207
  946      1      15.44942023        0.53802253       25.33387597
  947      1      12.48575070        8.29498974        9.19378636
  948      1      15.55294776       22.30516392       18.74799151
  949      1      21.38518954        3.25137000       24.97579970
  950      1      25.28866127       20.71069462        8.57610942
  951      1      10.42272829       21.55427928        9.25572782
  952      1       8.67947529        9.50043536       21.82455195
  953      1      18.00113685        7.48294517        7.46937075
  954      1       9.95994471        2.73049349       10.34957309
  955      1      23.67936181        8.01832941       12.76431243
  956      1      21.03447246       15.19312619       25.18903857
  957      1      13.47923044       21.71923660       27.02363595
  958      1      13.63719491       24.43816244        8.60663172
  959      1      15.18653767       15.97474743        9.83980597
  960      1       9.64235474       13.48075219        9.81144318
  961      1      21.04530972       17.11031584        8.90691536
  962      1      26.91977224        2.35036369       12.24926247
  963      1       6.08989596       27.10908527        6.83302453
  964      1       8.68278298       14.65021676       11.66787004
  965      1       8.08677043       20.84281013       26.63209992
  966      1       7.38855289        8.89521494       15.46163157
  967      1      18.33984092       11.28497987        0.76400952
  968      1       4.52306238        7.49373518       20.75477857
  969      1      11.76385659       13.19629756       18.55971249
  970      1      26.29632449       21.33621244       19.63293937
  971      1       0.33507351        8.04757169        6.48399385
  972      1      18.32911226       11.68183603       23.12395349
  973      1       4.73487956       22.94722910       17.58202814
  974      1      11.24493960       10.02590172       14.67946744
  975      1      25.09632444        1.52234689       24.07862930
  976      1      20.86375114       23.92215091       12.42672644
  977      1      25.90534559       12.29157687       14.72621270
  978      1      17.17257513       27.24465574       11.18211860
  979      1       0.94446615        0.67654886        0.58942715
  980      1      14.17224047       11.59922360       20.74475583
  981      1      23.21828688       25.89625793        7.71651180
  982      1      15.17110849        3.48421453       22.28201489
  983      1      24.21921612       13.48299581       25.84377987
  984      1      12.86704774       17.41110743       18.70138916
  985      1      25.82634577        4.84037038        5.77657267
  986      1      14.85275880        5.77485156       17.38661821
  987      1      11.57588269       19.87759082        4.57778938
  988      1       3.55982898        3.25776000        2.90461188
  989      1       8.63371502       17.34066742        5.45101596
  990      1      25.78867207       13.58904766        6.52060117
  991      1       4.48921024       23.78118078       23.29807002
  992      1      17.69356839       16.94851882       16.79912141
  993      1      13.30351312       25.51807236        6.28490616
  994      1      22.33920139       13.32780432        4.75542316
  995      1      24.36466804       18.60903713       13.92178709
  996      1      19.21296921       25.28240610       20.88713453
  997      1      12.24841364        5.31202672       12.55418052
  998      1      14.30786953        2.18742849        1.09662825
  999      1      18.03073474        9.65928980        4.71924653
