run_id:  1003  total_energy:   -3026.163408518562

  1000 atoms
  1 atom types
  0.0   27.664  xlo xhi
  0.0   27.664  ylo yhi
  0.0   27.664  zlo zhi

 Atoms

    1      1       0.02441437       18.75918450        6.76001887
    2      1      14.62729459       18.57311852       19.61354991
    3      1      19.85298632       15.24370352       15.87281310
    4      1      17.39582354        8.34948304       17.15611605
    5      1      12.82941189       12.81572421       13.22581402
    6      1       8.85058794       16.65509119        0.72950297
    7      1      13.86477703       23.98115339       26.99263756
    8      1      24.94443203       22.93572295       12.37302374
    9      1       0.65664380       26.02159441        6.10175733
   10      1      26.74117383       27.53371310       27.09186614
   11      1      26.23991374       24.03235191       26.53242357
   12      1      24.73243616       12.82491628       12.65730760
   13      1      11.76084410       16.38614036       11.38222619
   14      1       8.77482713        2.83088393       23.39536931
   15      1      22.29776605       12.22627916       22.82779716
   16      1      16.00253828       21.58401103        7.97677008
   17      1      22.71457542       17.48827621        5.25619060
   18      1       5.64209861        9.40014604       26.31645574
   19      1      25.01449183       10.29377905        5.07774129
   20      1       8.66095607       12.93998132        1.27244628
   21      1      25.63024937       18.09850841        1.79099011
   22      1       2.99434368       23.65267480        7.18392537
   23      1       4.99118623        2.32368168       17.98022219
   24      1      10.39579016       14.36910599       23.85435818
   25      1       0.37626445       14.95056203       19.03979969
   26      1      27.41670628        9.49389553       21.19894022
   27      1      12.91377598       18.16677402        3.62565276
   28      1      22.33969065       19.11305538        9.32774722
   29      1      17.73793689        3.21432662       15.55961587
   30      1      27.30069255       22.38677602        5.59985456
   31      1       4.84608506       21.73956461       14.21136602
   32      1      16.66822350       18.82817186       22.84065572
   33      1      16.95338218        2.93395614        3.36100548
   34      1       9.68175515       16.72807350       12.32073471
   35      1       8.23394503        6.08049382       12.54063331
   36      1      15.73801263       27.19185157        3.59758028
   37      1      10.63885588        6.58874856       20.11537334
   38      1       7.06165793       26.93146970       23.02702930
   39      1      21.88907133        2.73931694       18.08041034
   40      1      10.72297064        0.53598194        1.29743364
   41      1      10.81292607        7.14698335       27.65338413
   42      1      10.63929135       25.36190195        8.64964198
   43      1       4.51358162        0.66964168       11.50635825
   44      1       8.87656656       18.80312762       23.11081613
   45      1       1.36159317       13.15953081       26.41984489
   46      1      23.72290405       11.00943759       19.49454795
   47      1      14.36904343        7.67085419       14.47354663
   48      1       6.62120452        5.00437635       25.70715721
   49      1      14.97738924       20.37448209       25.92036042
   50      1       9.77559040        4.83566419        8.97211917
   51      1       1.38412193       18.50854738        1.08426474
   52      1       7.37256535        2.40831137        1.29384301
   53      1      24.47469305       19.94099337       22.69324805
   54      1       0.35905517       21.46820567       13.34235405
   55      1       6.89615449       21.95147003       11.03721503
   56      1       4.64915014       24.51832131       19.61357894
   57      1       1.88483811       18.83002861        3.35726248
   58      1       5.76752001       11.73364081        9.29422922
   59      1      27.18665588       11.73334775        7.36204285
   60      1      23.34497140        4.41264480        0.21447030
   61      1       2.40024553        3.05998990       15.26120041
   62      1      18.78765126        0.72253828       23.30747202
   63      1       8.12963570       11.66840601        9.24432571
   64      1       5.43196099       27.58078280       17.40657082
   65      1      20.41882497       21.76572853       21.54805797
   66      1       7.08458347        5.13059473        3.62076836
   67      1      15.95539534       13.21716083       15.94309083
   68      1      24.44419809        7.22517294       23.54998863
   69      1       0.19121989       12.28702017       24.60995461
   70      1       7.17587215        2.99103049       18.44795727
   71      1      10.38776976       17.37008430       14.61127184
   72      1      13.74154569        9.71719540       17.35033405
   73      1      13.30156211       21.09125616        1.55775356
   74      1      24.84457792        3.52265283       14.79705393
   75      1      26.36170492        1.84891410       15.78250873
   76      1       2.66436735       10.66531158       10.63867410
   77      1       2.65990465       23.58195251       11.15100197
   78      1       7.72511638       20.00981970       12.11349693
   79      1       3.85464269       16.82402248        7.76834963
   80      1      23.75233435       26.56699413       16.59484138
   81      1       6.99726066        7.53476640        9.03357288
   82      1      18.81440005        3.99920758       21.35863720
   83      1      11.01803054       18.97851946       26.23156513
   84      1      14.75754709       27.41243868        5.81266982
   85      1       0.71224828       22.10053528       18.68436459
   86      1       5.67297924       17.97592614        2.75620680
   87      1      26.79542911       25.16436188       19.93837315
   88      1       9.56440325       14.98660486        8.22553984
   89      1      25.28471194        3.78973497       24.48525559
   90      1      24.21831458        5.80760195       15.86514521
   91      1      11.77753970        4.50184085        2.42341998
   92      1       0.55960293       12.59086216       15.64379526
   93      1      20.01903801        0.35827634       15.59149948
   94      1      16.10589604       10.25268404       20.34320982
   95      1      22.82580663       14.22319919       24.05470162
   96      1      17.72082528       20.81920193       23.71017610
   97      1      10.07094357       19.78047475       19.79241144
   98      1      12.98104156        9.46778478       11.21696433
   99      1      25.51879727       10.08230024       15.27319365
  100      1      27.53331853        6.23363753       26.30168374
  101      1      22.77126798       11.60848905        8.03290994
  102      1      15.02865919       26.03661931       23.99046864
  103      1       9.00504115       14.67166049       16.85110870
  104      1      18.90958148       22.89902911        5.06440517
  105      1      17.88664215       26.50887090        4.11192099
  106      1       2.92325797       25.46685956        5.77355078
  107      1       9.69388610       10.00734822       18.14064833
  108      1      11.20463490        5.34917201       22.12439844
  109      1      23.76835942        1.41651314        2.61370236
  110      1      16.04521032       24.51880305       27.66282437
  111      1      13.85348447       13.62128358       19.48981295
  112      1       1.78188177       15.68511675        7.47091207
  113      1      11.10305723        6.91743400       16.51713442
  114      1      12.87239753        7.74634271        0.96905366
  115      1      23.81978485       24.44796746        9.46909285
  116      1      17.20198924       14.58883933        5.21444273
  117      1      19.84934531        4.87708298       25.93652971
  118      1       8.68079023        2.38003862       14.72340542
  119      1      18.95201314       18.94658914       13.05889805
  120      1       8.90327279        2.12405976       17.05899391
  121      1      12.55953238        5.88555346       14.81239163
  122      1      18.13869072       15.15619357       27.07215532
  123      1      26.95410545       14.25193058        4.59640008
  124      1       5.92368203       19.08589330       16.25090261
  125      1      14.47934468        6.78978945       21.03789370
  126      1       2.63000956       12.35981455       20.88637993
  127      1      19.64850851        6.30078566        3.73716311
  128      1      11.13246007       13.91378639       16.26570937
  129      1      20.92656142       16.69103559        6.59174387
  130      1      14.91591217       22.21867696       20.97233364
  131      1       5.07391367       11.00589735        7.07962545
  132      1      14.91867676       17.21000780        6.20634299
  133      1      25.16794215       25.20973522       15.24708427
  134      1      16.85496155       22.74573138       22.47523390
  135      1       5.23838364       23.21064499        7.64277073
  136      1       6.07495260       20.98057749        0.33637435
  137      1       9.50915462        2.01482901        4.96623567
  138      1       3.01779082       19.45894536       27.36223597
  139      1       6.31197753       15.00083563       11.18248041
  140      1      13.00491302       15.81678304        3.84307737
  141      1       9.59833686       24.48113976       26.11034941
  142      1      26.86885225        0.66852578       13.77479057
  143      1       9.16382767        9.69391861       25.60900892
  144      1       3.89587473        9.01189104        6.87119330
  145      1      17.18472011       23.47084890       10.81225901
  146      1      21.62702876        8.60251061        1.01887786
  147      1       1.83368288       21.88023060        5.95510823
  148      1      11.45470842       26.91004685       10.26963848
  149      1      13.75901306        1.83386858       11.98352058
  150      1       7.36102934        1.18029519        7.91204310
  151      1       0.40130052       12.15010344        0.60923604
  152      1       0.09774285        9.14905517        2.40273201
  153      1      15.44567534       20.61722573        4.74227928
  154      1       7.80028696       25.62431954        3.64822530
  155      1      14.07706438       14.38205592       23.39654472
  156      1      24.71924945       17.68715525       19.20301109
  157      1       2.07293323       24.89814350        1.71176131
  158      1       8.73325350        8.29194273        5.43584711
  159      1       1.27422299       14.14902067       12.24005196
  160      1       2.11864857        6.90585083       26.38045626
  161      1       3.85288931       20.25635534       16.84322466
  162      1       5.50516818       16.34940011       18.44904716
  163      1       5.07555457        1.14235911       13.79015216
  164      1      27.45354159        7.07785930       14.33971648
  165      1      13.35304858       14.85997089        8.55773884
  166      1      19.42130119       23.58337625       26.71961992
  167      1       5.86215075       15.17195785       14.86749687
  168      1      11.00951522       18.62164940       17.93814186
  169      1      14.67662748       18.27749065        9.85219629
  170      1      26.61019697        7.24281435        3.01496624
  171      1      11.50277971       24.51123985        2.76419787
  172      1      20.65192854       15.34553328       12.08954098
  173      1       7.38069318       17.96316011        9.25557074
  174      1       1.73303955       14.49739950       21.28567537
  175      1      16.34861445        9.18656367        6.29404777
  176      1       2.24397625       21.12941903        3.70192303
  177      1      18.12179136       13.58530944        8.55868332
  178      1      25.68951383       23.32119532       22.59774005
  179      1      11.52474385       18.22448013        8.03274438
  180      1      25.54003140       18.07884770        4.07358368
  181      1       8.25996617       25.21769533       18.99963396
  182      1      22.54999334       21.03583316       18.69752827
  183      1      15.39501045       21.75576408        2.75485602
  184      1      21.11921085       26.86350579        2.96991474
  185      1      24.97277018        1.48023878       19.39244181
  186      1      21.92673483        8.33188499        6.15826961
  187      1       0.82447961       23.34621699       26.25797210
  188      1      12.54606392       18.42693087       22.56359372
  189      1      17.44673110       22.58894683       27.41250253
  190      1      14.91923806        5.54891486        6.07887260
  191      1      14.27766987       25.56015785       12.35424365
  192      1      10.81092658        3.08535263       22.00426885
  193      1      25.72701409       25.26277567       24.08540371
  194      1      21.79141197        0.96903895        1.62852972
  195      1      10.26752062        3.54910604       26.72993446
  196      1      18.03553472       24.71559201       17.48091361
  197      1      20.90541244       20.77633138       17.03924023
  198      1      16.56340264       25.35147231       12.24578423
  199      1       3.40880102       26.90507714       16.45360772
  200      1       1.25281627       18.06641477       10.17167118
  201      1       3.98822513       15.93817207       26.20456404
  202      1      16.02879100        5.78657395       19.39606363
  203      1      22.04813816       20.53920963       11.25248787
  204      1       3.75880365       24.85684166        3.46876858
  205      1      18.28279708        5.71493696       12.34481741
  206      1       9.15819126       10.58918642        1.87229140
  207      1      26.80096536        5.51696931       21.30711473
  208      1      26.26937356        7.93012139       18.31848909
  209      1      26.87699519        4.87507877       13.20332580
  210      1      12.94170479        8.98645428       25.10218868
  211      1       4.69752030        9.29172139       22.36148623
  212      1      24.77733575       22.20046539       26.76743868
  213      1       0.16782406       17.86256791        4.69118853
  214      1      23.17611735       16.70958460       20.93562779
  215      1      13.18384213       25.92703980       18.13079511
  216      1      14.13202867       15.27831310       21.18153358
  217      1      26.25729190       15.97155699        0.99477674
  218      1       4.87107082        3.19604296       26.42361563
  219      1       3.81033614       18.62576372        6.33854306
  220      1      20.48333256       10.71758795       23.77810017
  221      1       9.89450348       22.35666133       27.23698982
  222      1      11.37704912       26.01078951       25.47778989
  223      1       1.73337330       12.29201336       13.60809540
  224      1       9.79312303        8.86447150       16.10753613
  225      1      17.30379974        3.78608185       19.56600597
  226      1      16.55053131       11.42215446       12.90542627
  227      1      25.54311917       14.39821340        2.60871229
  228      1       6.15016220        5.98039152        0.12677354
  229      1      13.65348361       12.06871801       22.99138749
  230      1      26.66013257       20.19848361       21.61950449
  231      1       7.62443368        5.61316009       10.25918187
  232      1      22.63458965       19.77417428       13.46996117
  233      1       4.40493560       12.16728440        2.34165748
  234      1       1.05475973       18.99664234       21.74218167
  235      1      21.40560886       16.12935325       14.12689454
  236      1       1.80114410       27.07014385       18.24886629
  237      1      17.05111529       24.92533721       23.60794621
  238      1      20.04876920       24.01665284        1.30548603
  239      1      14.20876617        6.10296139       11.43787397
  240      1      22.30243981       25.23462794       17.97594114
  241      1      14.67417755        9.96651086       23.67545249
  242      1      19.54960858        7.83969211        5.40813616
  243      1       5.41449500       18.69002320       23.72977256
  244      1      24.84341824        2.73540433        0.90902681
  245      1      12.16970849       12.83155091        9.40875685
  246      1       6.89310621       24.98138713        7.51105423
  247      1      19.00702162        5.07236542        7.13176344
  248      1      12.17823513        3.65836259       15.82860042
  249      1      22.53848623        9.81804111       11.62908619
  250      1       1.68056673       18.88242161       16.02855768
  251      1      16.08256217       14.15838806       26.59558821
  252      1       3.00473275        1.15287571        3.75110885
  253      1       5.18169268       13.10942057        0.26837640
  254      1       5.69054336       23.50477992       21.53804690
  255      1      11.83969232        6.84518199       25.47041398
  256      1       0.98668746       15.75457178        5.21775849
  257      1      24.27720326        0.29939484        7.87178770
  258      1      24.65378234        5.18448220        7.76278311
  259      1      15.48286556       27.58063404        9.57844154
  260      1      23.37456132       18.16296999        1.44352437
  261      1      21.13664461       19.95077616       20.30395531
  262      1      25.52754029       16.70956994       24.54556784
  263      1      24.89334147        1.25677836       26.64987450
  264      1      19.94216613       16.88704481       24.07875239
  265      1      12.82346987       18.71825306        1.43886861
  266      1      17.48709742       21.19241904        6.12005290
  267      1       7.57886146       26.67013093       10.76970158
  268      1       9.34152580       24.98449902       21.05228978
  269      1       6.94200223       19.95379006        8.19911223
  270      1       5.45025522       21.53399277        9.31035684
  271      1      16.37327369        3.67104671        9.44021456
  272      1       4.90581204       10.90300091       11.64078623
  273      1      21.78364540       12.01438903       20.41376878
  274      1      16.05314424       21.50638360       11.59448579
  275      1       0.01775385        9.83668574        0.12948118
  276      1      22.26159256        3.78791422        5.48392906
  277      1      17.81628006        7.25766135       19.15908247
  278      1       4.86416344       17.16391820       21.96227587
  279      1       8.93160077       22.96320454       10.53291169
  280      1      20.34909314       24.70013831       16.49816945
  281      1       9.64749178        9.63998733        7.11235338
  282      1      26.76456714        0.84589569       22.33219308
  283      1       2.00656425        4.98150494        4.26203681
  284      1      20.90830066        1.13450863       26.03652500
  285      1       2.61209234        5.85234154       17.65791558
  286      1      22.79716469        7.69745921       14.83672063
  287      1      15.51122866       12.61170559       11.14461256
  288      1       4.37886651       14.69680789       24.25573716
  289      1       1.44714651       10.30301272       24.31568565
  290      1      21.41292619       25.37528257       21.61964249
  291      1      10.38961759       11.23137526       21.56223363
  292      1       4.09936500        4.10558319       16.62242203
  293      1       2.79369122       20.62988999       21.88278045
  294      1      23.42981073       25.70091792       27.21983478
  295      1      20.69508675        1.01987983       19.43896014
  296      1       0.10084804       14.08432220       23.01907492
  297      1      17.84506921       17.54731549       21.25063618
  298      1      14.28999302       15.02943787        0.25413987
  299      1       0.54955366        8.44855853       23.32691355
  300      1       4.77969937       27.08062084        0.57953540
  301      1      19.36040915       25.32470736        8.55633303
  302      1      14.66899627       14.66140985        2.50288931
  303      1       7.24479185       11.05891820       25.64850417
  304      1      17.25616740        4.36377004        1.57122902
  305      1      19.96674520        7.16304621       22.61728516
  306      1      16.71914919       23.92900492       15.57401706
  307      1       4.09074376        9.92202058        2.04003131
  308      1       1.57712385       20.30272540        9.45141973
  309      1       9.47971921        0.84132457        7.05802983
  310      1      24.91902641        1.08489816        5.80124238
  311      1      20.13381678       16.94752489       18.11174161
  312      1       0.95590070        2.99717075       27.61972195
  313      1       3.10839303       10.99280602       22.78603189
  314      1      23.75027205       22.18614682       23.00904585
  315      1       1.38266934        1.66993868       18.76686507
  316      1      14.90394435       27.47306314       17.54629738
  317      1      13.22664422       21.42128966        5.42279786
  318      1      25.72725664       18.97911750       11.90875671
  319      1      24.64638321       18.46623832        9.77720252
  320      1       4.30332812       24.77669060       12.35910067
  321      1       7.78389065       24.34176453       13.63257375
  322      1      12.51750909       17.64241217       24.85908997
  323      1       2.04537875        9.34545577        5.52797718
  324      1      20.30983779       13.01574487       12.28656624
  325      1       9.91439822        0.72692681       19.93954363
  326      1      23.79234549       22.59637936        8.05166534
  327      1       8.36664342       26.47095768       12.86156743
  328      1      23.45112366        5.98580627       11.52109143
  329      1      14.83369867        7.71058548        5.21912288
  330      1      21.39195960       22.43516678        7.95420424
  331      1      23.79687226       16.28063505       13.97750575
  332      1       3.80177136        5.18924870       12.55313197
  333      1      22.55396993       18.78613617       21.81846907
  334      1       0.67535800        3.79225932       21.90819852
  335      1      11.02118896        2.23283109       14.26099380
  336      1      26.37132972       21.19994543       11.76243378
  337      1      19.71635297       20.59974493       11.47545492
  338      1      24.84677045        5.18005423       22.61431588
  339      1      19.88205974        4.38936243       11.02132318
  340      1      19.04959402       19.71507141        7.17849060
  341      1       8.77365217       13.04600633       13.40352716
  342      1      11.45357131       11.04918193        1.93138566
  343      1      18.72128492       19.17361605       27.06344603
  344      1      26.90416894       15.95640416       15.44284067
  345      1       3.53167613       25.86907818       23.98537336
  346      1      10.06906882       21.99091009       19.16629327
  347      1      24.09825175       10.93051571        0.85774423
  348      1      13.48050092        5.12701816       25.07630399
  349      1      25.88557168        8.62315508       13.48322527
  350      1      26.24852923        9.58484952        6.92935955
  351      1      18.22150346        1.13216109        7.27986394
  352      1      26.81608622       22.92659876        3.33065951
  353      1       8.10269706        0.29729379       26.39720847
  354      1      12.94771614        2.31305251        8.24716844
  355      1      19.75757849        8.98172244       25.46052562
  356      1      16.10428738       14.90274557       24.34571729
  357      1      19.75783450       12.46507216       10.03288577
  358      1      18.18331159       13.27592665       19.17196864
  359      1      22.61211134       18.81064608       25.64181630
  360      1      25.93175966       25.32016146        9.90895562
  361      1      15.12983491        4.38661469        0.66311399
  362      1      12.37391293        3.03904638       25.69177218
  363      1      10.16584146       20.39537939        2.73405167
  364      1      26.26202798       24.82793428       12.05507866
  365      1      16.17861541        1.15213064        2.09342830
  366      1      19.01308422        0.73986678       17.79084933
  367      1       6.61751853        6.75463240       24.02483257
  368      1       6.63009587       15.70885426       21.68784095
  369      1       8.38087254       25.88106629       27.55121519
  370      1      15.44358736       20.07765599       18.05470375
  371      1      10.84790464       27.49388903       23.68938621
  372      1      26.94129552        3.73380164        1.46691135
  373      1      23.16494183        5.74292685       17.99812678
  374      1      14.38732304       12.59696230        3.47428997
  375      1      16.83433945       15.46573539        2.98536183
  376      1       6.21054364       14.49767220       19.71055903
  377      1      26.12479086       20.50465147        6.43974277
  378      1       9.04746073        8.35699599       19.78900117
  379      1       3.95954483        7.34073389       13.58266635
  380      1      27.04588636       12.79913589        9.50470809
  381      1      24.68323420       19.95644214       18.28245788
  382      1      12.74038665       22.30898385        9.42547486
  383      1      13.00668415       23.69751816       21.29923659
  384      1      23.92956692       10.49305412        9.80492100
  385      1      18.11272646       11.37479827       20.77135391
  386      1      14.23579688       20.61055169       16.09012820
  387      1       5.82995426       19.70518133        6.19004470
  388      1      27.05357798       19.76380253        0.84161288
  389      1       4.13411264       17.78121290       19.86137983
  390      1       1.06256342       10.94589626       17.34458613
  391      1      11.10389683       22.28913823        1.72688483
  392      1       1.58608149       17.60504344       23.57588969
  393      1       3.76003358       27.27041241        7.11465357
  394      1      26.75975089       21.60011476       15.27627634
  395      1       7.38460693        0.43906628       14.26706458
  396      1       4.54658661       27.18265958        3.03115822
  397      1       5.51951693        3.51378180       13.08845405
  398      1       5.62718927       15.32108969        7.31410016
  399      1       6.31825522        0.06339796       20.90957082
  400      1      27.21118948       17.99743202       16.55754563
  401      1       9.00175735       18.49272858       10.87981952
  402      1       7.90310885        1.30339872       10.21717467
  403      1       1.81242152        4.17665151       13.19856545
  404      1       5.68184952        3.32225911        4.05671733
  405      1       7.41963554        8.24827937       13.01907360
  406      1       1.05665866        7.47102585        8.67167587
  407      1       2.70824820        9.66253749       16.11220380
  408      1      25.30685673        2.23868063       10.42317405
  409      1      19.31896988       26.81904164       10.38294733
  410      1      18.40340668        2.71339351       10.48116393
  411      1       7.57677318        5.38676209       17.89350947
  412      1      18.31889743       17.20960327       25.82236366
  413      1      11.86038727       10.87814450       18.33902845
  414      1       6.15569229       25.18928346        0.21747574
  415      1      14.47704639       21.27430083       23.85731962
  416      1       3.10564461       15.56156472       12.17982896
  417      1      12.21384061       14.23180103       27.12535475
  418      1      21.66038534        1.56789962       10.67709470
  419      1      22.95275959        0.00178243       12.91919600
  420      1      10.70838103       26.43777325       12.67597952
  421      1       6.60073056       10.53519707       21.77105357
  422      1       0.61947681       12.42975628        4.11529632
  423      1       7.74745013        9.77636648        3.80591013
  424      1      19.62986482       23.30475141        9.81330829
  425      1      20.72122020        8.45265379       10.68437122
  426      1      22.38560719       24.12597059        1.02173914
  427      1      17.24747723       20.75310660       26.01506529
  428      1      12.74582167       18.52003935       11.18457147
  429      1       3.44390709       25.07977548       14.76255648
  430      1       5.85590468       12.98912820        4.03695866
  431      1       7.41258832       13.01690537       26.95786498
  432      1      24.92500963       22.91313007       14.63786133
  433      1      22.85992599       22.88610184       11.21923884
  434      1       3.55890770        3.32303340       24.40505649
  435      1       0.71475799       22.86353650       16.48375321
  436      1      21.06698876       25.76511633        6.87083827
  437      1       8.43355323       24.98287783        9.38423139
  438      1      15.96379756       23.77352985        8.75184515
  439      1      12.97215378       25.38793417        1.11930924
  440      1      20.71750894       13.12030127       16.66983093
  441      1       3.83633670        7.92667882       17.15223128
  442      1      17.26563456       25.17147511        7.45452164
  443      1      17.31165125       15.80574652        8.72207556
  444      1      10.10894129        5.07732422        0.84259995
  445      1      15.23807812       14.92178701       11.83112485
  446      1      11.02630852        9.07974540       12.54118040
  447      1       4.37052757       22.30183961        3.79545616
  448      1       4.94182481        7.03589140        6.02411600
  449      1      24.86480959       19.00746540       24.81703167
  450      1       6.46400767       27.36288487        4.37794700
  451      1       9.41133708       27.39733151       17.73028846
  452      1      27.55458983       26.71059323        4.05487347
  453      1      19.63205672        9.32136526        0.06068840
  454      1       1.93502856       22.87960766        0.56006667
  455      1       5.92786205       10.83874253       19.50674602
  456      1       0.55828029       21.63187330        2.02465617
  457      1      17.30321031       11.96149072       17.32322604
  458      1      11.20074781       24.30639589       13.69614577
  459      1       4.64135378       15.23383167        0.69491423
  460      1      22.03259019        3.96479757       12.17055825
  461      1      20.14710553        5.55775067       15.37598540
  462      1      19.80730024       12.87112635        1.86807433
  463      1       4.38131638       11.43457535       15.75609605
  464      1       5.27985015       27.53333074       24.49009572
  465      1      13.08913586       15.11539000       12.92890917
  466      1      23.10927507       22.77830344       25.14792524
  467      1      17.10145741        9.29399854       11.95246912
  468      1      24.59939159       20.21446474        4.69786386
  469      1      21.84975253        2.64895543       22.69384805
  470      1       7.75960150       16.39753833        7.56510961
  471      1       5.34583734        6.86736253        3.70683201
  472      1      25.61967460       11.67306464       25.06010443
  473      1      22.86260167        1.62932104        4.86774138
  474      1      22.50902623       12.00822305       15.42180217
  475      1      27.50334305       21.92729432       23.01085990
  476      1      11.43038108       21.26059500       25.89031506
  477      1      15.72655788        2.25919846       20.24315064
  478      1       7.73603755       11.42660900       18.14472875
  479      1      22.79647381       12.31789707       27.22711033
  480      1      11.84261139        1.29539627        4.51881510
  481      1      12.21211307        4.60437451        8.34920099
  482      1      22.31839801       19.81463419        5.20915093
  483      1      14.48369952       23.02944914       15.50481255
  484      1       6.71103197       14.44247375       23.61894112
  485      1      17.89099160       19.15378845        1.64490174
  486      1      18.69978144       14.97200268        1.71568808
  487      1      24.63791106       25.00064040        6.03901004
  488      1      19.43212029       22.25883542        2.88416433
  489      1      16.11789917        4.84507908       11.65838255
  490      1       9.27653013       17.12270568       16.83814078
  491      1      12.18274595       15.77505117       15.12193508
  492      1      11.87659150       20.33928476       16.45508838
  493      1      27.23916735       15.75526241       13.02426139
  494      1       3.17786328       22.96695879       15.73564433
  495      1      19.09397277       26.11715945        2.12347182
  496      1      17.74314875       22.75562257       18.64940781
  497      1       0.05763101       16.92853780        8.44139127
  498      1      23.47340985       25.12101768       24.96289119
  499      1      20.16498620       27.12002814       24.65602925
  500      1      24.63920621       15.50681107       15.96249878
  501      1      18.88748901       13.35301791        6.32382259
  502      1       6.39625831       21.98621938        2.38087883
  503      1      18.15812947       14.04053203       23.45150115
  504      1       1.72191578       19.34860034       13.57027609
  505      1      22.39145381        0.33939270       15.24739769
  506      1      17.89965664        5.37759659       14.72725587
  507      1      16.04301572       10.05564004       17.98928501
  508      1      22.05561339        6.74752636        9.73654334
  509      1      12.89928008        9.36851722        2.67427717
  510      1      13.84705141       27.55596977       13.53919178
  511      1       3.02647233       15.59120730        4.16892405
  512      1       2.54295882       16.39025539       16.06718165
  513      1       8.66952799        8.09024587       23.82916561
  514      1       7.92514233       16.83756785       26.24149786
  515      1      17.85754037       26.59542060       22.13547869
  516      1      12.70341078        4.77566377        6.07861778
  517      1      13.18455912       23.71756459        4.66540001
  518      1       7.05006039       20.20929714       22.92217993
  519      1       1.36427810       10.16575169       12.54675742
  520      1       9.99265728        5.52405384       18.05964317
  521      1      18.61569385       25.42992720       25.40769527
  522      1      23.21628929        2.01132554        9.04037271
  523      1       3.95412176        5.51723020       10.17540975
  524      1       3.09959785       15.92974738       22.70453604
  525      1       4.09519835       12.18980476       13.52428614
  526      1      16.32921525       17.26972120       24.61650392
  527      1       2.50905827       26.57334103        0.09223157
  528      1      12.87114702       25.98963815       20.59003203
  529      1      20.94201516       18.41569618       14.36021529
  530      1       3.91186690       21.82402699       27.19753415
  531      1       4.65560977        3.32282009        6.16726028
  532      1      14.81262677        8.24036288       12.19378080
  533      1       7.31148414        7.76206511       18.15848684
  534      1       6.48739869        3.33442350        7.57305434
  535      1       4.87584085        8.19571741       24.39157013
  536      1      14.27587044        3.44924771       16.80745420
  537      1       3.23751614        3.69225952        0.50299861
  538      1      23.74936062        6.77472854        3.08251132
  539      1      18.58283108       21.17196669       17.05819034
  540      1      21.10285657       22.64398890       15.38295544
  541      1      23.71563300        3.73900162       19.34731748
  542      1       1.15292428       23.90335735       20.21809796
  543      1      12.88047770       22.99767641       23.60886939
  544      1      13.40868022       23.61576173       13.37541445
  545      1       2.61208634       25.69223884       20.03181120
  546      1       3.02573076        1.58502910        6.10062082
  547      1      24.68230575       11.71603642       22.85569458
  548      1       7.87497808       18.95330631       19.88096772
  549      1      10.89728713       19.43558487        9.93580033
  550      1       4.66594790       22.20023364       24.89541372
  551      1       3.40063322       12.60803462        6.71577621
  552      1      23.89017531        2.38656938       12.66679014
  553      1      17.62674372        6.37835423        2.53104535
  554      1      18.55066662        3.10452227       17.71604719
  555      1      17.55938824        1.82478677       25.19676544
  556      1       6.77986261        3.24242586       22.24624615
  557      1      18.98549208        1.64891860       27.30666027
  558      1      17.79183190        7.94879177        0.80043840
  559      1      23.11298891       23.27105700       19.29888388
  560      1      22.79529321       25.30706224        2.90260932
  561      1       0.11401503        7.41898312       20.13330020
  562      1       7.72665852        4.75716391        1.43483815
  563      1       0.77937600       23.77027106       12.59044127
  564      1      20.28180452       16.71954006        2.14949328
  565      1       7.54897090       11.51107386       12.05668879
  566      1      26.84284857       24.28604865        6.71825334
  567      1      26.70933953       13.10745883       19.74885867
  568      1       0.85145921        2.14191246        7.11260053
  569      1      17.36906617        3.28404059        7.19391253
  570      1      27.41066650       25.01592290       16.03706559
  571      1      20.88737516       22.03630137       25.61383285
  572      1      13.69891256       14.88664404        6.12224652
  573      1      16.91720097       20.35619882       13.49954169
  574      1      25.52258804        0.31028113       17.42741475
  575      1       2.61320966       27.00865886       22.12061577
  576      1       8.88742972       18.80748016       25.47647323
  577      1       6.26718162       24.41558562        2.37433577
  578      1      13.12816121        7.47447187       17.72437907
  579      1      14.55889885       19.62198665       21.87102040
  580      1      15.71061142        8.52827322       21.96325769
  581      1      27.18692537       21.57920010        9.61974960
  582      1      21.22845832       18.76110982       23.74587239
  583      1      23.20661219       23.76794457        4.62699161
  584      1       6.50268920       21.15827021       20.69554679
  585      1      24.44300775       15.96278253       10.13105225
  586      1      20.64251795        6.86828721       24.86306137
  587      1      14.64613641        2.02772768        9.76123582
  588      1      25.87072420        5.80274174       11.16141551
  589      1      13.56215367        9.81255390       15.12520164
  590      1      17.20636654        4.75196879       22.96846967
  591      1      21.35385019       20.22810987        7.36954135
  592      1      18.68902069       16.79694865       12.07491643
  593      1       4.91694493       14.32349892       12.95318579
  594      1      11.07160004       14.74682712        3.11924356
  595      1      20.90009541       20.34253200        3.27611927
  596      1      17.83874726       27.64959692        0.74518147
  597      1      25.36787607       26.81155295        4.66289781
  598      1       0.20538356        4.97743367       17.52317175
  599      1       7.42650879        4.36685346       14.11109925
  600      1       8.90453539        4.42992142       25.07632792
  601      1       7.54949334       14.21164791        3.03167883
  602      1      11.46720779       16.11998282        8.97219781
  603      1      12.04468835        1.88090708       23.65237837
  604      1      17.56529554        4.20884092       25.20595354
  605      1      13.72588495        6.26582486        9.20199157
  606      1       3.56299450       12.23307369       26.50911835
  607      1      17.59251028        1.65260127       12.38420816
  608      1      27.14296512       17.18249700       18.81569421
  609      1      27.61884053       26.66949604       25.07293647
  610      1      16.24974063        6.82730024       15.75624614
  611      1      25.82913320       26.44299704       21.73012645
  612      1       4.48723095       12.71502122       19.41871879
  613      1      19.49387681        9.17235107       16.40424802
  614      1      25.35924254       23.30365586       20.13095784
  615      1      11.52930062       26.54364218        4.79218555
  616      1      18.03876532       10.46438259        9.97139679
  617      1       2.05623532       19.44399434       25.17341782
  618      1      13.67714756       26.15367984       10.17103476
  619      1       9.01590103       20.82488212        7.32456950
  620      1       1.98483312       19.93372565        7.15060308
  621      1      10.70115011       19.86430430       22.18040948
  622      1       6.89144192       22.77670859       16.94146696
  623      1      11.97628382        9.48404515        7.17447324
  624      1       5.79118270        0.92682876       26.68171276
  625      1      16.78726464       15.90671762       13.29328852
  626      1      15.29248139       11.33997833        7.11627589
  627      1      22.65554900        3.91809216        7.80352775
  628      1       5.83674684        4.25746411        9.59875215
  629      1      15.94874763       16.64417865       20.22356849
  630      1      10.62338416       22.03088692       23.39315716
  631      1      16.16723107       17.68536561        2.22884988
  632      1      20.59846624       13.58582183       19.08750968
  633      1      24.37702002        6.39188051        0.75345226
  634      1       0.87128309       14.71472420       16.65207439
  635      1       1.27533639        2.84876333       24.03297573
  636      1      17.87279970       21.98870670       14.90317785
  637      1      16.90528241       26.45044583       26.67194603
  638      1       5.68014633       17.64772296       25.98660313
  639      1       9.07518922        8.83542318        0.13143662
  640      1      23.59745869       22.09913888        1.19479329
  641      1      27.49616157        3.93384476       25.58577083
  642      1      11.02315279        1.21316449        8.91084136
  643      1       9.19229530       15.10063787        4.50722649
  644      1       4.31107182       20.23590739       20.08578238
  645      1       1.38300475        2.71020398       11.15310492
  646      1      14.49674590       27.11680826       21.88344083
  647      1      19.32296713       13.75455280       25.53811605
  648      1      21.32884830       15.77533625       27.46405745
  649      1      12.31129397       15.22661453       24.87652728
  650      1      21.43053249       18.41626750       16.70454747
  651      1      20.11874449        6.53462910       19.07184465
  652      1      26.90981030        9.65769896       11.70872408
  653      1       5.24071646       14.00007134        9.26617536
  654      1      25.29871778       12.04881116       18.19984028
  655      1       8.07173269       20.86495683        3.61200489
  656      1       2.03595838       12.78975810        2.27347147
  657      1      11.96901117       13.03457399        5.95354426
  658      1       6.67084856       16.04605032        1.82406737
  659      1      26.18476706       20.36859383       26.30627571
  660      1       7.84940717       22.66533363       19.05702031
  661      1      16.26121113        7.55787571       26.67999709
  662      1      19.39725729       18.53831114        3.35833703
  663      1       0.93651824       16.23861492        0.75342744
  664      1       1.24650464       25.38423953       14.19669272
  665      1      17.15466239        9.79975054        2.40824816
  666      1      14.95214229       14.52890456       17.56536914
  667      1      12.03180458       12.61509229        3.60353832
  668      1      13.02267261       19.87109284       12.99233252
  669      1      21.14758450        9.08976637       22.09273620
  670      1      20.74268051        4.98465730        8.84891166
  671      1      24.07291346        7.55692300       19.21099120
  672      1       8.57834265       11.75760268        6.82227654
  673      1       7.57322434       13.58239164       15.29614754
  674      1      16.40691389       27.30383566        7.48517708
  675      1       1.55156813       12.81047810       10.24352576
  676      1      25.68816349       11.54693282       10.93360488
  677      1       8.23077781        4.81283917        7.05776621
  678      1      20.41238865        4.72055285       17.59079939
  679      1      10.44489133       18.60509731        0.93969306
  680      1       1.87920332       22.78615120       22.15092314
  681      1       3.38718092        2.47522537       19.77006933
  682      1      12.65132952        8.61716674        5.02353898
  683      1      19.92848418        1.96313520       21.61351691
  684      1      15.32675890       23.83578618        3.78011857
  685      1      23.29994023        9.75337495       15.91518389
  686      1       2.30509563        8.82984706        3.19376115
  687      1      22.45664215       10.16845787        2.57964882
  688      1       4.23046401       12.31233973       24.29719291
  689      1      20.75464974       26.25171750       12.36164028
  690      1       5.28233491        8.60062911       18.87932191
  691      1      16.87384484       15.39604880       18.49158796
  692      1      20.96774344       10.23604570        7.22504906
  693      1      15.62135596        5.29241161       26.21285661
  694      1      18.98916888       17.82008055        5.77052902
  695      1       1.88305424       25.51229991       25.69946402
  696      1      21.35894214        6.53125575        2.16126056
  697      1      23.53709709        8.15882578       27.12642458
  698      1      19.02662350        0.67731632        5.16243663
  699      1      20.99167536       11.79173773        3.65879091
  700      1      23.49840755        8.32042154       21.64047215
  701      1      21.15316257       27.57241570        5.20889586
  702      1      25.05510510        8.74795071        8.74195507
  703      1      10.70016628       23.10794559       21.06820336
  704      1      10.52051004        6.74419147       12.06763261
  705      1      23.14017836       21.52764944       14.97071901
  706      1      19.26733070       15.84375508       22.04816166
  707      1       0.23399232        3.12404270        3.58046055
  708      1      10.77234492       26.75884303       21.40240946
  709      1      14.99895903       19.31501715       14.33769792
  710      1      16.42072412       27.59460465       20.59581396
  711      1      23.31863767        4.45913775       25.61844085
  712      1      14.51911129       17.39060441        0.43631993
  713      1       8.70594400        0.56306220       24.12391306
  714      1       5.58169760       17.59440578       14.45464637
  715      1       2.43810189        6.50090505       19.92866172
  716      1      16.30391670       20.08287199        9.78826647
  717      1      10.16946064       18.98083190        6.29783926
  718      1       1.38253459       27.55894653       13.39904060
  719      1      11.32887284       10.70357293       25.46989739
  720      1      25.57168387       19.58645953       15.96955920
  721      1       2.16421136       20.26614705       18.63361091
  722      1      19.14788855        2.60975724        3.81628734
  723      1       3.72789369       10.09653050       27.35719375
  724      1      24.03358094        4.80501108        4.29298341
  725      1      12.29075840       11.82654393       27.40957127
  726      1      10.08172524       13.36991368       20.26004263
  727      1      23.33929066        8.83878778        4.29477311
  728      1      13.71022328        1.93135086        5.96813252
  729      1      23.42883276        7.29645958        7.92548326
  730      1       0.11100952       16.03504033       24.39269374
  731      1      26.72164250        2.70208491        5.62368271
  732      1       0.39071101       21.20491848       25.16613722
  733      1      26.29243902        4.41154265       19.31323565
  734      1       7.21394568       17.90908710       17.83124537
  735      1       1.47859054       11.55562282        6.00738478
  736      1      19.23514567        2.07594862       14.20866366
  737      1       7.73111851        1.86566218       20.40873755
  738      1      20.97144425       14.34963504        6.47690077
  739      1      12.89759919       11.54327373        7.49390914
  740      1      13.77713437       18.66867505        7.77909411
  741      1      23.18388082       14.52425429        2.87791976
  742      1      19.13277411       11.49319268       15.95386557
  743      1       8.23791468       13.60888758       18.82212042
  744      1      22.93557792        6.78497451       25.25311356
  745      1       7.03936411       21.80487253       24.65273986
  746      1       3.37954323       21.35015571       10.60683692
  747      1       0.96328550        0.50689609       23.52238402
  748      1       6.06201569        8.74575037        2.51300171
  749      1       5.72678270       17.27323222       10.74972435
  750      1       9.99888609       26.23184751        6.53524776
  751      1      18.51073693       19.50782801        9.52333502
  752      1       9.22280422        1.73774043        0.07188260
  753      1      22.66240028        2.59624430       15.75828779
  754      1       3.77293946       20.27027963       23.92867173
  755      1      15.73849022        3.36470523        5.43275501
  756      1       7.12718239       18.85384300        4.41088895
  757      1      23.12664124       17.06351508       27.12639566
  758      1       3.84848129       20.22351019       12.65356958
  759      1      25.61597054        9.63698740       26.46769272
  760      1       8.80505920        8.95586786        9.38204124
  761      1       0.16573717       17.95213386       12.23667412
  762      1       3.23946690       17.12216721       13.88804817
  763      1      11.00602035       19.67990408       14.38281365
  764      1       7.43228721        1.66970065        3.64581005
  765      1       2.60664070       15.03276050        1.96568674
  766      1       3.73479519       17.75102949        4.12085894
  767      1      19.12094756       18.66482787       19.57330172
  768      1      14.58520161       18.11692630       25.87837960
  769      1      18.55563043       23.01507549       20.84933472
  770      1      17.12292418       16.50458318        6.51689523
  771      1      20.71116179        8.83582088       18.42845971
  772      1      24.41901631       13.17324263       16.27015993
  773      1       8.67130810       23.40129969       24.15552448
  774      1      14.03528278        1.91024087       18.61597642
  775      1      20.12777594        2.68362809        1.55988952
  776      1      10.46661800        7.18930963        9.73542482
  777      1      20.61422272        5.54070589       21.13257306
  778      1      15.60775450        2.88659096       12.90523618
  779      1      13.28986563       11.82182171       11.15935238
  780      1      19.45170504        9.08359705        8.74551705
  781      1       7.42001495       26.92117356       16.24549451
  782      1       4.80112858        7.67873208       10.01215574
  783      1      24.52122151       26.79481875        2.53806303
  784      1       3.63685866        5.99723897        0.48560721
  785      1       3.72273098        5.14168985       22.99535457
  786      1      13.60210492       23.58877867       17.65021630
  787      1       7.19889699        6.91343522        6.78593268
  788      1       9.79852841       13.70160877        6.32806565
  789      1       4.96796384        1.95303926       23.27150836
  790      1      27.25346946        2.16264111       20.29279455
  791      1      22.09251557       15.39051297       10.05752736
  792      1      21.52957791       13.49863314        8.67623246
  793      1       6.50545969       12.01836000       23.63937119
  794      1      23.96741039       12.20297981        6.05025392
  795      1       6.13675942       26.21232310       19.22534723
  796      1      27.46910397       25.05367703        2.43328544
  797      1      25.03263696       15.16900692       12.30818575
  798      1      25.72347361       13.67096511       21.92889495
  799      1      15.13696613       25.40848300        2.15503153
  800      1       4.52081871       14.24366485        5.42548366
  801      1      10.11535632        6.22712798       24.03810201
  802      1      10.68167744        7.49031339        4.33491084
  803      1      26.45993567        6.50473485       16.42272175
  804      1      20.06364194       20.86381760       23.67964744
  805      1       9.51212778       22.96967235       12.88202180
  806      1      21.07740127       23.59884158        5.93523113
  807      1       1.82798557        9.23793182       26.48521162
  808      1      10.76083383        3.40797460       17.69763657
  809      1      21.07612950        3.65279226       14.30596107
  810      1      21.00584139       20.09402709       26.95821943
  811      1      27.56706371        6.27172252        4.94395017
  812      1       8.50031015       17.03870716       21.48752754
  813      1      15.87714983        5.96745115        8.20979133
  814      1      16.53852952       11.82680548       26.78442052
  815      1       8.33176494       14.69479186       25.27830239
  816      1       7.58599689       24.69223215       22.52875068
  817      1      26.41655674        7.88010140       24.84085865
  818      1      14.54463596       10.95770829        0.05237959
  819      1      11.67368645        3.03508232       12.15777631
  820      1      10.86036749       12.36565259       14.41775671
  821      1       1.56274831       18.16412140       19.67482612
  822      1      13.78060889       21.02502608        7.65627304
  823      1       0.75307774       11.35349982       19.86013166
  824      1       0.75634883        3.62924100        8.99853770
  825      1      10.30025787       14.71634267        0.90817692
  826      1      27.40824052       23.87080550        8.91976419
  827      1       6.17768338        5.22496103       15.94921336
  828      1       0.86666463        0.90608468        2.96995718
  829      1       5.89720774        5.63703199       22.09214573
  830      1       8.82585301        9.61226745       11.74272311
  831      1      26.64560293       10.91501782        3.45572846
  832      1      19.61784530       11.24821800        5.49757058
  833      1       2.21245809        5.40035073        8.51887237
  834      1      15.52545890        0.01847981       15.22323871
  835      1       4.14990401        0.94408765       21.37142883
  836      1      25.87233003       12.26843385        1.69662765
  837      1       8.37741403       24.62901570        5.69515236
  838      1       2.66151600        4.45515966       21.01808605
  839      1       8.04405533       24.58468992       15.91168737
  840      1      22.03063455       26.72419980       19.80216503
  841      1      22.21718350       23.18992004       21.46577579
  842      1      10.29085930       15.36023114       21.62048957
  843      1       5.23891686       18.81036022        0.41190531
  844      1      12.28170310       10.17927925       20.46230816
  845      1      24.96066027       15.67778246       26.60934632
  846      1      13.28459631       24.81002922       24.94241307
  847      1       2.23337082        0.52567473       11.19365160
  848      1      24.32577961       15.52654140       22.73477758
  849      1       5.92304580       23.22905531       12.77370543
  850      1      19.14878499        7.95759879       12.47382454
  851      1      17.50385972       21.45731504        1.81144959
  852      1      15.66825590        2.41404451       15.21327105
  853      1      16.72455220       10.68656004       24.64367547
  854      1      15.33040028       13.20614921        5.57167479
  855      1      11.68466033        2.34372630       19.61181161
  856      1      11.41439761       22.56252068       17.29448521
  857      1       1.91053869        8.46537621       14.14224454
  858      1      23.20449987        0.78291499       22.87389056
  859      1       6.91873188       21.01950319       15.37017361
  860      1       9.02510320        4.32878339        4.98491773
  861      1      10.46822868       24.37383040       15.96348724
  862      1       3.34440659        5.24204587        6.34889418
  863      1      14.27194003        1.49705958       23.21060021
  864      1      20.21417453       10.23954808       20.28298257
  865      1      18.53071106       12.40413938       13.77577722
  866      1      27.25090847       26.37173061       17.91679208
  867      1       6.80183780        8.18787152        0.32559087
  868      1      11.05542460        5.25995962        4.48821187
  869      1      22.74495747        0.29599529       27.22933790
  870      1      23.41563749       16.98081994       17.37598173
  871      1      20.97983509        4.69463021        0.60311671
  872      1       5.25795015        8.58916619       12.10696884
  873      1      25.01946839       10.06933642       21.29512635
  874      1      13.87127040       16.37778941       16.62725987
  875      1       3.42227489       16.99882734       10.16251565
  876      1       4.42473515       15.20616826       16.70583898
  877      1      21.85213253       13.81922816        0.99983207
  878      1       2.99229686        0.86315837       14.82455314
  879      1       3.13983872        6.60024747        2.80128202
  880      1      26.13721743       27.64836484        9.26647194
  881      1       6.78001079       11.29117513       15.98085745
  882      1      15.10241691       18.44274383        4.21104694
  883      1      22.95946229        9.28655961       18.17262564
  884      1      13.79957030        5.82701985        1.94153260
  885      1       5.27519848       26.31308635       10.82494710
  886      1       2.73766353        7.05716162       24.07245335
  887      1       0.39065359       27.65306522        7.87045204
  888      1       1.96978977       24.54465199        9.14342242
  889      1      18.82130624       17.23451527        9.79217609
  890      1      22.46184866       16.70864862        3.05726440
  891      1       1.51317370       15.51220204       26.30122123
  892      1      12.24866864       16.60438842       21.02390825
  893      1      13.66762864       21.87499874       11.76368325
  894      1      25.89039306       25.75430831        0.61370295
  895      1      12.17493802       27.19110758       27.41166756
  896      1       2.85316400       13.80296931        8.64752182
  897      1      19.56018727       26.05826632       14.54808798
  898      1       2.97250829        8.83520100        9.05149542
  899      1      22.83445287        4.41107108       21.45478339
  900      1      25.24972229       26.60238986       13.32736043
  901      1      17.53496010        7.22550298       22.93198645
  902      1      20.81803029       23.91260862       11.80644770
  903      1      17.16690997       25.90603737       14.41698255
  904      1      26.68290343        5.99171602        0.91848593
  905      1      17.74639961       14.38115127       14.77454578
  906      1      14.25278603        8.75928901       27.02029239
  907      1      17.13955032       26.89333542       18.35800796
  908      1      23.93758250       27.61738055       20.80388596
  909      1       0.63247279        2.81545927       16.75403157
  910      1      11.31734166       26.48571362       16.64079463
  911      1       9.60600273       26.09375482        2.09036964
  912      1      26.77107128        7.82930148       10.14644780
  913      1       6.04020295        2.49558677       10.93845900
  914      1      20.40211671        7.80787383       14.65628520
  915      1      22.07597928       26.46040200       23.58581101
  916      1       6.75985156       11.32225332        5.38041882
  917      1      24.57574210       22.19692061        3.36280605
  918      1      22.20321766       20.21947319        1.32457817
  919      1      26.51955411       10.09332001       17.37578918
  920      1       5.37026810        7.34985871       15.49616693
  921      1      11.31005078       12.09735166       23.54709965
  922      1       8.93710212       20.89436409       13.92257259
  923      1      13.57406788        5.23501957       22.61376063
  924      1      17.52593282        8.51201633       24.94467031
  925      1      17.28156637       24.52487194        5.17249703
  926      1      26.11828583       14.99605712        8.67406035
  927      1       5.77201320       18.79505726       12.48030254
  928      1      11.70195227       27.64045321       14.47500244
  929      1      16.47907239       12.01974758        9.05748961
  930      1      13.65748781        1.26735383       26.74472222
  931      1      17.60701230       19.21473760       17.75827772
  932      1      19.64762946        1.16206114        9.31925422
  933      1       3.51759763       13.07161128       17.26451980
  934      1      20.01734851        4.41231574        5.03776963
  935      1       2.24423944       26.91316017        9.08432831
  936      1      20.96787377       15.74999605       20.14205255
  937      1      15.44873472        7.29679407        3.07262002
  938      1      14.90621550       10.60817953        2.32420212
  939      1      22.41069186       11.95408735       12.96865460
  940      1      14.69371973       11.80138230       14.41245997
  941      1       8.15127619       22.20630142        5.56942643
  942      1      15.70736441       17.17294911       15.15209187
  943      1       5.71654179       21.98724470        5.74972000
  944      1      12.63758816        7.78589838       19.96954610
  945      1      12.23683507        2.13983554        2.35388649
  946      1      26.11063237        4.25930928        9.44506034
  947      1      15.44917212        0.51687177       25.32295575
  948      1      12.49569520        8.26792622        9.17503361
  949      1      15.43595540       22.30557118       18.77994285
  950      1      21.39235823        3.22743024       24.96284792
  951      1      25.25334099       20.72985935        8.54657616
  952      1      10.39397556       21.66270929        9.20224689
  953      1       8.68813869        9.48942768       21.82754952
  954      1      18.01774841        7.48450355        7.46794872
  955      1       9.97960224        2.74387988       10.33848452
  956      1      23.68405885        8.02187582       12.76276494
  957      1      21.03707990       15.19921191       25.18607477
  958      1      13.45682781       21.70577744       27.03926182
  959      1      13.61285468       24.45345670        8.58545633
  960      1      15.17974466       15.95632676        9.73364645
  961      1       9.66429040       13.39127006        9.91990663
  962      1      21.04876500       17.13268459        8.94387882
  963      1      26.94662928        2.40037994       12.21928834
  964      1       6.10192932       27.12971053        6.81402607
  965      1       8.64789109       14.67434503       11.71887325
  966      1       8.00178237       20.88025418       26.55769908
  967      1       7.39194876        8.90096416       15.45288790
  968      1      18.36141959       11.28286421        0.75208502
  969      1       4.52628371        7.49382383       20.76084001
  970      1      11.75126065       13.19429707       18.54313706
  971      1      26.30666886       21.25189291       19.52078372
  972      1       0.34394946        8.06115975        6.47802251
  973      1      18.32776303       11.68309465       23.11205982
  974      1       4.64871628       22.98609843       17.67773653
  975      1      11.24252888       10.03177032       14.66072375
  976      1      25.10701081        1.50084451       24.06893510
  977      1      19.77296670       22.41355672       13.40953680
  978      1      25.91700826       12.30774155       14.73008636
  979      1      17.18274257       27.26008940       11.17715479
  980      1       0.93795692        0.68732908        0.58937742
  981      1      14.16941109       11.59248269       20.73896164
  982      1      23.23521232       25.91202098        7.71158052
  983      1      15.17586524        3.46235782       22.26488081
  984      1      24.22068089       13.48909139       25.83792982
  985      1      12.79759621       17.37685808       18.69320399
  986      1      25.82783764        4.85333541        5.75532844
  987      1      14.86026645        5.76423239       17.37127489
  988      1      11.55703003       19.83519572        4.60420063
  989      1       3.56517947        3.26990758        2.89436600
  990      1       8.61417745       17.31762710        5.51475604
  991      1      25.79817995       13.59873836        6.52451981
  992      1       3.93381303       23.67825725       23.18291100
  993      1      17.58667636       16.96106680       16.76980654
  994      1      13.29793596       25.51807006        6.26534203
  995      1      22.36096821       13.34160657        4.75920234
  996      1      24.53190395       18.55886674       13.89677272
  997      1      19.22381003       25.25551975       20.87925886
  998      1      12.25326409        5.31869785       12.54639209
  999      1      14.31414096        2.17245856        1.08485634
 1000      1      18.06576985        9.65460611        4.70077333
