run_id:  1020  total_energy:   -3026.303295942279

  1000 atoms
  1 atom types
  0.0   27.664  xlo xhi
  0.0   27.664  ylo yhi
  0.0   27.664  zlo zhi

 Atoms

    1      1       0.04812462       18.71247437        6.74044579
    2      1      14.70425264       18.59774497       19.58025384
    3      1      19.86586470       15.22599834       15.85232069
    4      1      17.43042976        8.35913122       17.16719000
    5      1      12.81887387       12.82669637       13.23913705
    6      1       8.86955964       16.64563780        0.75447147
    7      1      13.86728136       23.99157937       26.99428233
    8      1      24.78165762       22.99857230       12.23172279
    9      1       0.66531408       26.00542107        6.18825425
   10      1      26.78682338       27.53417592       27.10021490
   11      1      26.27756424       24.01974249       26.53116575
   12      1      24.71092076       12.79349879       12.53877862
   13      1      11.73351630       16.39458729       11.40312594
   14      1       8.77237152        2.84921454       23.43303883
   15      1      22.30996344       12.24755503       22.79534020
   16      1      16.00424624       21.59186871        8.01072641
   17      1      22.72839749       17.42041373        5.20263038
   18      1       5.58883454        9.48854227       26.41750282
   19      1      24.92910342       10.32137871        5.02757775
   20      1       8.75335522       12.94867431        1.27549637
   21      1      25.67300376       18.06464048        1.75939201
   22      1       2.96765079       23.63155970        7.24739051
   23      1       5.00259315        2.32194523       18.04271407
   24      1      10.43865349       14.39320899       23.83247735
   25      1       0.46071357       14.90962221       19.12118801
   26      1      27.43258148        9.47883811       21.23276799
   27      1      12.91598160       18.18251992        3.63486650
   28      1      22.32440773       19.09059894        9.28031205
   29      1      17.69895479        3.23557184       15.57189537
   30      1      27.32676555       22.35099867        5.59646082
   31      1       4.77849974       21.78069204       14.26728222
   32      1      16.70193960       18.84350535       22.82068932
   33      1      16.94619500        2.93301901        3.34936433
   34      1       9.65173355       16.73892194       12.34931755
   35      1       8.23165833        6.09950377       12.56468303
   36      1      15.75200798       27.19306043        3.60428235
   37      1      10.65200791        6.61068689       20.13013667
   38      1       7.07161508       26.93022530       23.06433583
   39      1      21.84152090        2.81846809       18.14156614
   40      1      10.71985533        0.55178460        1.32145400
   41      1      10.82059559        7.16960482        0.00540719
   42      1      10.56801156       25.35188431        8.69675543
   43      1       4.33805655        0.77456157       11.55810176
   44      1       8.94271465       18.78635314       23.15796325
   45      1       1.35509497       13.18301626       26.40546897
   46      1      23.79925914       11.05401336       19.44647403
   47      1      14.36855565        7.68006066       14.49037997
   48      1       6.63023974        5.06082822       25.78227017
   49      1      14.99227975       20.38898598       25.91028792
   50      1       9.76442660        4.83425585        9.00319224
   51      1       1.43961543       18.44572000        1.08608358
   52      1       7.36338876        2.47132986        1.33049953
   53      1      24.53108065       19.93084433       22.67784841
   54      1       0.16627478       21.53559481       13.37075521
   55      1       6.83744056       21.94501703       11.09206381
   56      1       4.66596326       24.47184395       19.62294261
   57      1       1.93280235       18.77403717        3.35453595
   58      1       5.75797573       11.73968259        9.34040949
   59      1      27.15682334       11.74984783        7.30685122
   60      1      23.34436765        4.40542245        0.20123337
   61      1       2.40163170        3.10476529       15.39316100
   62      1      18.79045676        0.72335757       23.31559138
   63      1       8.12865430       11.68546852        9.30148818
   64      1       5.42288057       27.58320226       17.44888078
   65      1      20.46836599       21.76996737       21.54688697
   66      1       7.05895232        5.25893101        3.66158540
   67      1      15.97876257       13.22033217       15.93953776
   68      1      24.44374404        7.23650079       23.54238750
   69      1       0.18624191       12.31817548       24.59129112
   70      1       7.18430332        2.99615337       18.49517481
   71      1      10.39920549       17.39245841       14.62164495
   72      1      13.75720618        9.73441624       17.35359949
   73      1      13.30619626       21.10464546        1.55598847
   74      1      24.63083614        3.58283738       15.56309542
   75      1      26.31153377        1.89241714       16.04557998
   76      1       2.58402264       10.67720137       10.68227083
   77      1       2.58920594       23.56427540       11.23100895
   78      1       7.65692244       20.00806351       12.19140189
   79      1       3.85073206       16.79685398        7.79078051
   80      1      23.74824110       26.53024077       16.64959709
   81      1       6.99090533        7.54291514        9.06345271
   82      1      18.81425661        4.00648644       21.36642399
   83      1      11.05649465       18.98384724       26.25394809
   84      1      14.76254708       27.39878523        5.82286264
   85      1       0.72882522       21.97356126       18.57021765
   86      1       5.69756063       17.91692083        2.76464430
   87      1      26.86077453       25.12247296       19.95954117
   88      1       9.55960973       15.00079085        8.26779621
   89      1      25.29159237        3.79547667       24.49444149
   90      1      24.28549374        5.95873073       16.09340419
   91      1      11.77884944        4.50824412        2.44522582
   92      1      25.67798367        8.49048137       13.24407177
   93      1      19.96832006        0.42895957       15.66467202
   94      1      16.12974931       10.27274674       20.33299778
   95      1      22.83070091       14.24647330       24.02944617
   96      1      17.75203425       20.82644379       23.69918153
   97      1      10.14221520       19.79275759       19.79997816
   98      1      12.98345029        9.46773658       11.23995570
   99      1      25.68994661        9.97226476       15.15381733
  100      1      27.53334963        6.24069136       26.29371099
  101      1      22.70589217       11.63352153        7.95945307
  102      1      15.03407357       26.04507314       23.99770149
  103      1       8.99275030       14.70690346       16.85204012
  104      1      18.91668619       22.89683735        4.99547588
  105      1      17.91055521       26.50773544        4.09864038
  106      1       2.92807321       25.45486725        5.84003396
  107      1       9.68783717       10.03963039       18.13869061
  108      1      11.20554990        5.36609390       22.13947343
  109      1      23.81502417        1.40472583        2.57255236
  110      1      16.04760924       24.52704565       27.66225489
  111      1      13.87697430       13.64409753       19.46850121
  112      1       1.78470162       15.65476158        7.46735969
  113      1      11.09902593        6.93576570       16.53060737
  114      1      12.89067002        7.75638269        0.97295072
  115      1      23.47836663       24.34300427        9.43247842
  116      1      17.18906516       14.60221789        5.19652353
  117      1      19.84493378        4.88133118       25.92492133
  118      1       8.65387623        2.38713147       14.74745096
  119      1      18.91969552       19.01167760       12.98387676
  120      1       8.89314602        2.13179180       17.08575380
  121      1      12.55596213        5.89549976       14.82890103
  122      1      18.14354843       15.16887894       27.04925087
  123      1      26.91447869       14.25467527        4.55758641
  124      1       5.82353396       19.24096263       16.49593370
  125      1      14.49145185        6.81334522       21.04130648
  126      1       2.66761968       12.36314208       20.94922211
  127      1      19.62934848        6.29411411        3.70033180
  128      1      11.12457397       13.94613180       16.26680807
  129      1      20.90949066       16.68567425        6.53952470
  130      1      14.96512552       22.22056341       20.94649291
  131      1       5.09949440       11.00840664        7.11585706
  132      1      14.90518539       17.23040615        6.21770568
  133      1      25.09560053       25.13620631       15.25356056
  134      1      16.88192229       22.75050109       22.47024800
  135      1       5.21155311       23.19102160        7.68026719
  136      1       6.09145645       20.96962302        0.36784180
  137      1       9.49395071        2.03893034        4.99498763
  138      1       3.05582522       19.41291261       27.34445249
  139      1       6.21818281       14.99567657       11.24132201
  140      1      13.02999465       15.82967471        3.84874158
  141      1       9.60715963       24.49386400       26.13790821
  142      1      26.66699277        0.81567278       13.97749508
  143      1       9.18092229        9.70431652       25.60902663
  144      1       3.87922347        9.04822886        6.86962964
  145      1      16.93622690       23.49436187       11.02074042
  146      1      21.58739779        8.58020218        0.99331869
  147      1       1.85508347       21.84646390        5.97428190
  148      1      11.40688818       26.90215412       10.28323542
  149      1      13.73941014        1.84309167       12.00069769
  150      1       7.33252875        1.19743303        7.93844051
  151      1       0.18125298       12.15451930        0.50297990
  152      1      27.64232918        9.14312639        2.39287549
  153      1      15.43864681       20.63579706        4.75289616
  154      1       7.79832636       25.64869656        3.68130815
  155      1      14.10060657       14.40147450       23.37186420
  156      1      24.80733060       17.61930236       19.23495431
  157      1       2.12277419       24.87752802        1.72309081
  158      1       8.81588182        8.27028770        5.52009003
  159      1       1.18860991       14.13803366       12.26896751
  160      1       2.10445600        6.95260852       26.38929506
  161      1       4.26537716       20.60062294       17.93470962
  162      1       5.54774441       16.36760284       18.48680828
  163      1       5.00929807        1.17648937       13.83305280
  164      1       0.63545382        6.35802724       14.36079478
  165      1      13.33807910       14.86974471        8.57008296
  166      1      19.43252823       23.58221004       26.70127955
  167      1       5.79855004       15.23433676       14.88507199
  168      1      11.05623051       18.63760813       17.93317418
  169      1      14.64369890       18.27926381        9.86264456
  170      1      26.56980121        7.21616635        3.00781176
  171      1      11.50940111       24.51525047        2.78267681
  172      1      20.62379900       15.35056648       12.05317484
  173      1       7.32294405       17.94886757        9.31685705
  174      1       1.77719920       14.49333025       21.33128936
  175      1      16.34332355        9.17699361        6.28684306
  176      1       2.28338265       21.08172814        3.71490183
  177      1      18.09402711       13.57035603        8.53522457
  178      1      25.74985213       23.30224253       22.60756003
  179      1      11.50035450       18.24530386        8.06760130
  180      1      25.58664615       18.02799656        4.03988407
  181      1       8.27089255       25.23655351       19.02245687
  182      1      22.66583715       20.99091555       18.73089711
  183      1      15.39356928       21.76416351        2.75600808
  184      1      21.15280203       26.86850063        2.91983813
  185      1      24.96252567        1.48987416       19.47273537
  186      1      21.86073564        8.34907191        6.08771777
  187      1       0.86664923       23.33497857       26.26931518
  188      1      12.59630483       18.44800213       22.55021854
  189      1      17.45120517       22.59848672       27.39544241
  190      1      14.92359356        5.52453419        6.10417656
  191      1      14.17795140       25.59599251       12.39921998
  192      1      10.80362044        3.10224879       22.02696712
  193      1      25.77032877       25.25076942       24.08389974
  194      1      21.82941327        0.97032679        1.59734506
  195      1      10.26516284        3.57551942       26.76247832
  196      1      18.04776391       24.72776940       17.52807923
  197      1      21.36777373       20.62171892       16.91059549
  198      1      16.43990681       25.41167579       12.35272052
  199      1       3.39202576       26.92649881       16.49523869
  200      1       1.21592602       18.04202146       10.19811263
  201      1       4.07018753       15.85153597       26.28504164
  202      1      16.05512913        5.82703735       19.40504049
  203      1      21.91356283       20.46679931       11.22220120
  204      1       3.77568839       24.85883821        3.51384101
  205      1      18.33297399        5.68762570       12.35826654
  206      1       9.25871453       10.60806686        1.88338697
  207      1      26.81678669        5.52980360       21.34465268
  208      1      26.39811731        7.96854028       18.30411980
  209      1      24.94770224        4.09022186       13.33818891
  210      1      12.94849941        9.00129680       25.09296959
  211      1       4.72744169        9.30490844       22.40483272
  212      1      24.81898253       22.18492893       26.74658865
  213      1       0.21219229       17.80538218        4.67407193
  214      1      23.21734712       16.70357828       20.92614234
  215      1      13.17771013       25.92906662       18.14289458
  216      1      14.17034755       15.30117796       21.15795786
  217      1      26.29684064       15.93831780        0.96375131
  218      1       4.89687443        3.24948314       26.46370913
  219      1       3.81107302       18.56868806        6.32391784
  220      1      20.50174267       10.73125770       23.75831103
  221      1       9.91307360       22.36488670       27.26100252
  222      1      11.38193369       26.01817063       25.49180397
  223      1       1.09654419       12.23061291       13.71808965
  224      1       9.77697554        8.88285085       16.11717406
  225      1      17.26842463        3.80658956       19.59904774
  226      1      16.54714662       11.41992283       12.90714938
  227      1      25.50238388       14.40549074        2.57464424
  228      1       6.15111244        6.09359350        0.18452234
  229      1      13.67196476       12.08851875       22.97313107
  230      1      26.74507660       20.19610009       21.61604261
  231      1       7.61119498        5.62159076       10.28996420
  232      1      22.42960079       19.81538013       13.49810303
  233      1       5.37222505       11.46555723        2.28791270
  234      1       1.15314399       19.02487897       21.64340035
  235      1      21.39190573       16.10275899       14.08930470
  236      1       1.79583352       27.05432705       18.28803631
  237      1      17.05595056       24.92972725       23.60808989
  238      1      20.07157945       24.01579013        1.27627403
  239      1      14.22617056        6.09112957       11.45987161
  240      1      22.26017231       25.18409802       17.95056418
  241      1      14.68208645        9.98595070       23.66291882
  242      1      19.50632759        7.82469493        5.37299116
  243      1       5.43909986       18.67318341       23.76812266
  244      1      24.87082670        2.74093365        0.88744232
  245      1      12.15871103       12.84172299        9.43004279
  246      1       6.85396922       24.97933052        7.52614993
  247      1      19.00653854        5.04130556        7.11175314
  248      1      12.16340647        3.66968762       15.84749968
  249      1      22.43419618        9.88133120       11.51727235
  250      1       1.37543076       18.89398866       16.10039085
  251      1      16.09142782       14.17329979       26.57218858
  252      1       3.02876353        1.19149918        3.79505880
  253      1       5.41619842       12.91128440        0.28207365
  254      1       5.75229274       23.46839342       21.54529817
  255      1      11.84154394        6.86233983       25.48216759
  256      1       1.01738401       15.68559562        5.19275995
  257      1      24.53127037        0.17020350        7.75256254
  258      1      24.63278289        5.18022629        7.67266844
  259      1      15.46536830       27.56458468        9.59133742
  260      1      23.40869401       18.15148769        1.41690358
  261      1      21.19021816       19.95936831       20.29140467
  262      1      25.55965877       16.71501525       24.54038836
  263      1      24.93137941        1.24689860       26.64270154
  264      1      19.95695604       16.90202813       24.05948991
  265      1      12.82990719       18.73428698        1.44727051
  266      1      17.47445042       21.21430378        6.11338779
  267      1       7.40485545       26.68064709       10.77655272
  268      1       9.35918820       24.98957725       21.07150056
  269      1       6.90423953       19.93664461        8.23812732
  270      1       5.40938557       21.51453373        9.35612160
  271      1      16.42014847        3.65040320        9.46727478
  272      1       4.82711212       10.94732198       11.66615900
  273      1      21.83052345       12.01998543       20.37536782
  274      1      15.96505948       21.48592239       11.68051177
  275      1      27.56057255        9.83315238        0.09767325
  276      1      22.27417934        3.82150959        5.33122673
  277      1      17.90735554        7.24824543       19.14958146
  278      1       4.89735131       17.15523471       21.99032218
  279      1       8.86845149       22.96741732       10.56725046
  280      1      20.25240268       24.76946386       16.41195781
  281      1       9.70267266        9.62943114        7.19446805
  282      1      26.77833115        0.83301567       22.36817052
  283      1       2.07515815        5.07764845        4.22942050
  284      1      20.91806934        1.13037538       26.02803304
  285      1       2.67600854        5.87221609       17.72955446
  286      1      22.77288760        7.72517435       14.84581380
  287      1      15.49988660       12.61793187       11.15274910
  288      1       4.42075704       14.69440129       24.28343657
  289      1       1.42663268       10.33378467       24.29556854
  290      1      21.43718281       25.37463888       21.61453653
  291      1      10.40477547       11.25412150       21.55447908
  292      1       4.13795572        4.11756108       16.70254279
  293      1       2.89918811       20.62550634       21.75031536
  294      1      23.47475276       25.69796530       27.17587820
  295      1      20.69090615        1.03850521       19.45173561
  296      1       0.11507579       14.11506728       23.02222037
  297      1      17.88907256       17.56881354       21.22999869
  298      1      14.30945451       15.04709533        0.24325765
  299      1       0.55329467        8.45262665       23.33829792
  300      1       4.79692069       27.10476437        0.62087958
  301      1      19.45936025       25.41872445        8.39472674
  302      1      14.68087611       14.67694198        2.49385385
  303      1       7.26840327       11.05795095       25.64945423
  304      1      17.24523838        4.35443567        1.54671114
  305      1      19.97505338        7.18137232       22.59365037
  306      1      16.79906947       23.87758503       15.61875982
  307      1       3.20169758       10.73040792        2.00448915
  308      1       1.57565903       20.25375695        9.46374725
  309      1       9.45377478        0.85301312        7.08713655
  310      1      25.05813670        1.03962685        5.69629146
  311      1      20.18447109       16.94316449       18.17644690
  312      1       0.99089570        3.01424038       27.63590956
  313      1       3.13612844       10.99661889       22.82576320
  314      1      23.79914566       22.17468095       22.99881106
  315      1       1.39547736        1.64710955       18.86472751
  316      1      14.87279981       27.49404069       17.58538181
  317      1      13.22716541       21.43538506        5.44309614
  318      1      25.63194828       19.00412406       11.92323072
  319      1      24.61130301       18.45388300        9.77421062
  320      1       4.21558514       24.80940122       12.39427239
  321      1       7.72725958       24.35931437       13.65061755
  322      1      12.54684737       17.65970505       24.84803391
  323      1       2.02007206        9.38073812        5.50434831
  324      1      20.29378024       13.02183281       12.25909005
  325      1       9.91541204        0.73215760       19.96412426
  326      1      23.90063063       22.59502768        7.89101341
  327      1       8.27434411       26.48621127       12.85488564
  328      1      23.37131212        6.11055611       11.34925793
  329      1      14.84384963        7.68181425        5.22977177
  330      1      21.62834849       22.32780641        7.49758936
  331      1      23.78427332       16.27096037       13.91752513
  332      1       3.81399405        5.20404247       12.62495194
  333      1      22.59610352       18.78318916       21.80695893
  334      1       0.68828358        3.80150873       21.95302981
  335      1      10.99081688        2.24794127       14.27999999
  336      1      26.25889979       21.23291153       11.73824833
  337      1      19.59033459       20.43699433       11.18096947
  338      1      24.85157687        5.18961971       22.63071659
  339      1      20.03496650        4.36732271       11.10906333
  340      1      19.03631033       19.69787182        7.09543951
  341      1       8.73504425       13.07731035       13.43519873
  342      1      11.52210729       11.06484547        1.92860929
  343      1      18.73161928       19.18096886       27.04288352
  344      1      27.03167248       15.74860906       15.39973528
  345      1       3.56168332       25.85333478       24.00248410
  346      1      10.09907465       22.00268226       19.16483062
  347      1      23.99757798       10.93285576        0.80701268
  348      1      13.47509901        5.13966608       25.08439932
  349      1      26.29541992        6.16345997       13.12053399
  350      1      26.20677429        9.62231695        6.82336740
  351      1      18.22736755        1.09513930        7.27279294
  352      1      26.86926021       22.88788740        3.31574216
  353      1       8.10608499        0.32631165       26.43921533
  354      1      12.93630544        2.29681089        8.27813522
  355      1      19.75635954        8.98974225       25.43844298
  356      1      16.12256622       14.91925649       24.32141166
  357      1      19.73272179       12.45451022       10.01242941
  358      1      18.22838990       13.28474460       19.15209549
  359      1      22.64444591       18.81231595       25.62239330
  360      1      25.66557848       24.72713882       10.21448883
  361      1      15.11672745        4.38375357        0.65593006
  362      1      12.36724344        3.05463063       25.71203672
  363      1      10.16922789       20.40551711        2.75960285
  364      1      26.72130071       25.82960292       11.88396425
  365      1      16.17798832        1.14742036        2.08995714
  366      1      18.96798083        0.77109393       17.84673093
  367      1       6.62529227        6.79210825       24.08190397
  368      1       6.66561925       15.70808737       21.70542280
  369      1       8.39233953       25.90273327       27.58412223
  370      1      15.57338527       20.08776645       18.02098611
  371      1      10.84542697       27.50557707       23.71203718
  372      1      26.96288573        3.74209028        1.46857691
  373      1      23.16016492        5.86491900       18.17440965
  374      1      14.40796692       12.61758833        3.46929809
  375      1      16.83666210       15.48639298        2.97152653
  376      1       6.22340020       14.49918467       19.72929704
  377      1      26.14959586       20.45007778        6.39796843
  378      1       9.06673225        8.38525202       19.79866114
  379      1       4.04717429        7.38322596       13.59092078
  380      1      27.02876789       12.79656761        9.45354862
  381      1      24.75611766       19.92759242       18.38835035
  382      1      12.71018481       22.31944500        9.45704484
  383      1      13.03861334       23.69527226       21.28632642
  384      1      23.85196511       10.51594644        9.69853916
  385      1      18.15132318       11.38080603       20.74802502
  386      1      14.29634314       20.61443672       16.09874259
  387      1       5.81750671       19.67855020        6.20665637
  388      1      27.11391765       19.72242078        0.82640028
  389      1       4.16332105       17.76813934       19.88804148
  390      1       1.21575067       10.92842999       17.57898353
  391      1      11.11698590       22.29345248        1.74633282
  392      1       1.61460258       17.63528796       23.52809112
  393      1       3.76034738       27.27034257        7.17123590
  394      1      26.43932325       21.56331127       15.28714088
  395      1       7.32986701        0.45671083       14.28457174
  396      1       4.54836182       27.20139282        3.07180638
  397      1       5.51230015        3.53562060       13.13665980
  398      1       5.61474345       15.28598204        7.30960151
  399      1       6.32010603        0.05622622       20.94808043
  400      1      27.08262658       17.81607048       16.55035137
  401      1       8.94718402       18.50725785       10.93371561
  402      1       7.83249759        1.30769936       10.24876229
  403      1       1.80602929        4.36903034       13.44206147
  404      1       5.67613179        3.41185190        4.09100860
  405      1       7.42648108        8.27842075       13.02021507
  406      1       1.04589801        7.51747787        8.58692520
  407      1       2.72348901        9.65390536       16.12716434
  408      1      25.23658567        1.99486714       10.48618283
  409      1      19.25988837       26.71137828       10.42360235
  410      1      18.47381233        2.71492857       10.55474797
  411      1       7.58819966        5.39873894       17.93914357
  412      1      18.33055044       17.22172163       25.80145298
  413      1      11.86604872       10.90085714       18.32810170
  414      1       6.16814845       25.21324991        0.25577334
  415      1      14.50602955       21.28882724       23.84755823
  416      1       3.01335553       15.61041337       12.31096654
  417      1      12.24257697       14.25209860       27.11343115
  418      1      21.84000888        1.01628929        9.92576756
  419      1      22.82403448       27.48561532       13.09522005
  420      1      10.63273154       26.44698010       12.67970696
  421      1       6.61749730       10.55304164       21.77607502
  422      1       0.50668612       12.39428542        4.06408553
  423      1       7.96390148        9.81312251        3.91008492
  424      1      20.37460773       23.44208470        9.16888227
  425      1      20.65083740        8.45149288       10.61970683
  426      1      22.41389664       24.11800625        0.96360133
  427      1      17.26216603       20.76265550       25.99811440
  428      1      12.72428802       18.52805676       11.21305255
  429      1       3.38172329       25.11402090       14.79932037
  430      1       6.03944262       12.89198596        4.07568224
  431      1       7.56158000       13.00919972       26.91086655
  432      1      24.53996160       22.88696573       14.62244185
  433      1      22.58916667       22.81947777       11.29123872
  434      1       3.57688952        3.33616053       24.44986655
  435      1       0.60988894       22.80089704       16.40679846
  436      1      21.15162070       25.81472394        6.69016731
  437      1       8.34429495       24.99623755        9.42054936
  438      1      15.98486182       23.77408791        8.81049122
  439      1      12.97281007       25.39462832        1.12799944
  440      1      20.79914897       13.10924872       16.63425149
  441      1       3.87551498        7.94098727       17.17480993
  442      1      17.29977877       25.13843041        7.45253358
  443      1      17.27976269       15.77801730        8.70046018
  444      1      10.10678743        5.10931773        0.87342971
  445      1      15.22672226       14.92964920       11.83962546
  446      1      11.02678544        9.09139581       12.56338952
  447      1       4.38323483       22.29634275        3.82149359
  448      1       4.94239040        7.09626305        6.03736318
  449      1      24.90294901       19.00631661       24.80708669
  450      1       6.46287884       27.39729489        4.40769792
  451      1       9.40258776       27.40256116       17.75775526
  452      1      27.63281409       26.67220555        4.07177462
  453      1      19.60814694        9.31206482        0.03610042
  454      1       1.98398842       22.85370199        0.56808271
  455      1       5.92930327       10.86117200       19.51189485
  456      1       0.61693709       21.58560661        2.02324160
  457      1      17.34149069       11.96932281       17.31078432
  458      1      11.15210651       24.31725303       13.72070912
  459      1       4.74244795       15.01212042        0.74718408
  460      1      22.25209706        4.00746789       12.30877612
  461      1      20.14116322        5.55396104       15.41490941
  462      1      19.78431569       12.88260846        1.83030405
  463      1       4.28139598       11.47702565       15.70271419
  464      1       5.29264623       27.53551142       24.53349669
  465      1      13.07885716       15.12461222       12.93442691
  466      1      23.14590167       22.76729599       25.13319774
  467      1      17.08765283        9.28499234       11.95574540
  468      1      24.62847727       20.16089642        4.64416910
  469      1      21.84994384        2.63793416       22.70580885
  470      1       7.73569792       16.39107111        7.60631571
  471      1       5.35936121        7.11083745        3.71142792
  472      1      25.61179034       11.69352680       25.03897672
  473      1      22.94454512        1.63683405        4.82761454
  474      1      22.61975582       12.00769164       15.36799807
  475      1      27.58957854       21.92420479       22.99431620
  476      1      11.44123967       21.26918844       25.90139464
  477      1      15.70216144        2.27824849       20.27180294
  478      1       7.71728319       11.45228216       18.12065484
  479      1      22.73800661       12.32883272       27.16046618
  480      1      11.82771011        1.29563666        4.54711100
  481      1      12.20861846        4.59449743        8.37963952
  482      1      22.35051140       19.71996003        5.11760307
  483      1      14.54418544       23.01351002       15.51936418
  484      1       6.74485921       14.44244192       23.62907928
  485      1      17.88411865       19.16347701        1.61614121
  486      1      18.68951423       14.98526626        1.69087887
  487      1      24.69278635       24.92812522        5.96798200
  488      1      19.43797085       22.24453266        2.82721726
  489      1      16.15151820        4.83698750       11.67185906
  490      1       9.29226939       17.15698090       16.83677703
  491      1      12.19937119       15.79861694       15.12703411
  492      1      11.92273119       20.35593267       16.46184399
  493      1      27.20782075       15.75584564       12.97777080
  494      1       3.15836447       23.00203120       15.74070620
  495      1      19.11506347       26.11774611        2.10525959
  496      1      17.89441502       22.72599034       18.66615268
  497      1       0.05715424       16.90137266        8.43397321
  498      1      23.51115499       25.10792874       24.93545776
  499      1      20.17554650       27.11404362       24.65212087
  500      1      24.74712087       15.41518930       15.83736333
  501      1      18.85427187       13.35140958        6.29807173
  502      1       6.40235920       21.99436871        2.40856498
  503      1      18.17508701       14.05181486       23.42817521
  504      1       1.57901675       19.44016288       13.63207658
  505      1      22.36088675        0.33945635       15.36367678
  506      1      17.90239567        5.38920135       14.73718091
  507      1      16.07006180       10.06790506       17.98342332
  508      1      21.96110929        6.76393716        9.60336347
  509      1      12.94893244        9.37389166        2.68238376
  510      1      13.77632085       27.58536978       13.57458282
  511      1       3.05362514       15.45514089        4.12001687
  512      1       2.50528756       16.47283545       16.24917828
  513      1       8.68018123        8.10674286       23.83987786
  514      1       7.95577997       16.83377946       26.26578921
  515      1      17.86335777       26.60006711       22.14108670
  516      1      12.70945845        4.75140811        6.10785069
  517      1      13.18739665       23.72924314        4.67964201
  518      1       7.10929089       20.17582221       23.00579365
  519      1       1.23151888       10.11185878       12.53185540
  520      1       9.99874505        5.54028864       18.08138158
  521      1      18.62190760       25.43229777       25.40368429
  522      1      23.19124541        1.88569858        8.41474399
  523      1       3.91059102        5.54429299       10.21851027
  524      1       3.13752417       15.93156550       22.73660363
  525      1       3.78437227       12.21322999       13.50290128
  526      1      16.34540373       17.28605613       24.59526424
  527      1       2.54186903       26.57068960        0.11501275
  528      1      12.87695145       25.99334961       20.60228707
  529      1      20.84099243       18.37044341       14.37515808
  530      1       3.93998707       21.78445971       27.19305380
  531      1       4.64080469        3.36294489        6.20006550
  532      1      14.81102119        8.23394961       12.21105699
  533      1       7.32844547        7.77693653       18.19034978
  534      1       6.46450403        3.35930466        7.60971143
  535      1       4.89004434        8.24084584       24.46463846
  536      1      14.26258600        3.47371765       16.82956242
  537      1       3.25742385        3.76480428        0.53463327
  538      1      23.79211710        6.80353772        3.05246562
  539      1      18.97305935       21.16995875       17.09008235
  540      1      20.47349485       23.04676346       14.66368231
  541      1      23.67610430        3.78339767       19.39003693
  542      1       1.22293101       23.82248252       20.14613055
  543      1      12.91259142       23.00894955       23.59481227
  544      1      13.37231190       23.62152227       13.42643033
  545      1       2.63599710       25.66724642       20.04648900
  546      1       3.02454423        1.59972188        6.16562456
  547      1      24.69670600       11.75376587       22.84072556
  548      1       7.97725422       18.92643333       19.91340745
  549      1      10.85372019       19.44982901        9.98030612
  550      1       4.69495279       22.18363610       24.89292142
  551      1       3.40376442       12.58366092        6.70608059
  552      1      23.07806202        1.80359790       11.75657436
  553      1      17.62031246        6.36908991        2.49431529
  554      1      18.45034001        3.10046732       17.73907724
  555      1      17.55964045        1.82943803       25.19985979
  556      1       6.78137987        3.25252372       22.28454476
  557      1      18.99413874        1.64433656       27.30103793
  558      1      17.76697463        7.95293900        0.78591175
  559      1      23.15194221       23.25220140       19.28764214
  560      1      22.84283569       25.32271149        2.82509268
  561      1       0.16393365        7.41434232       20.15770324
  562      1       7.71811328        4.83233469        1.47914956
  563      1       0.67325196       23.86485568       12.59965697
  564      1      20.27437616       16.72390036        2.09788332
  565      1       7.49667049       11.53042314       12.12824275
  566      1      26.85601439       24.23531756        6.75340603
  567      1      26.75928847       13.09165982       19.76296513
  568      1       0.85567804        2.11272352        7.23103468
  569      1      17.37564489        3.25276227        7.19511935
  570      1      27.32847021       24.96543379       16.06570983
  571      1      20.91446687       22.03882670       25.59909511
  572      1      13.70059403       14.89272977        6.13225559
  573      1      17.06779701       20.47984885       13.57924288
  574      1      25.51470235        0.25784934       17.55301082
  575      1       2.62843218       26.98827566       22.14623526
  576      1       8.92374048       18.80329507       25.52680408
  577      1       6.27064669       24.43125130        2.41023095
  578      1      13.13593060        7.49411751       17.72912949
  579      1      14.60646127       19.64537513       21.83892803
  580      1      15.72427814        8.55222177       21.95556405
  581      1      27.17144781       21.47701435        9.61350083
  582      1      21.26101907       18.76389145       23.72873075
  583      1      23.28812139       23.76349877        4.48416670
  584      1       6.67697933       21.06632477       20.78778769
  585      1      24.42345242       15.96000146       10.08232773
  586      1      20.63340409        6.87313418       24.84153147
  587      1      14.65390762        2.02221822        9.77909216
  588      1      25.75720978        6.01791677       10.76599393
  589      1      13.56151300        9.82591973       15.13201702
  590      1      17.20615743        4.76503170       22.97356803
  591      1      21.36771695       20.11790855        7.23818488
  592      1      18.65537800       16.81432994       12.06104901
  593      1       4.78689702       14.33748340       13.01094949
  594      1      11.10974932       14.75668037        3.14008828
  595      1      20.91514435       20.32158475        3.22155356
  596      1      17.84540560       27.65019867        0.74210402
  597      1      25.44759082       26.75388443        4.58816574
  598      1       0.25709708        4.97906106       17.68324874
  599      1       7.42834612        4.38459256       14.14355391
  600      1       8.90246422        4.45694358       25.11101968
  601      1       7.65427373       14.19538724        3.07010123
  602      1      11.45718418       16.13496472        8.99714568
  603      1      12.03722198        1.89408832       23.67416128
  604      1      17.56226592        4.21359961       25.20663456
  605      1      13.73810868        6.24859601        9.22554523
  606      1       3.57885808       12.26983705       26.52130935
  607      1      17.59335625        1.64729110       12.41453992
  608      1      27.22912628       17.10996640       18.85714348
  609      1      27.65928694       26.65712023       25.09076723
  610      1      16.26293152        6.84766402       15.76525298
  611      1      25.86576001       26.42600719       21.74190482
  612      1       4.46947261       12.73019252       19.42570760
  613      1      19.51891301        9.18410424       16.40951527
  614      1      25.40634721       23.28778011       20.13811691
  615      1      11.51109198       26.54267351        4.83235651
  616      1      17.99103161       10.45959358        9.96016690
  617      1       2.09388770       19.44643896       25.13827447
  618      1      13.63484527       26.15576950       10.18724767
  619      1       8.98231416       20.81999496        7.36247527
  620      1       1.99906277       19.88909567        7.15711808
  621      1      10.74550118       19.87574312       22.19842564
  622      1       6.86778385       22.83329405       16.97040189
  623      1      12.01979234        9.47375221        7.21029830
  624      1       5.79904000        0.96251222       26.72490027
  625      1      16.78793435       15.90856766       13.29676263
  626      1      15.29083706       11.34045866        7.10781334
  627      1      22.63585092        3.96770369        7.59829344
  628      1       5.80241414        4.28476683        9.63750672
  629      1      15.99791494       16.66032656       20.20229762
  630      1      10.66592827       22.03464468       23.42429862
  631      1      16.16444358       17.70572736        2.22572613
  632      1      20.64496008       13.58561002       19.05561223
  633      1      24.36126553        6.39551278        0.70869445
  634      1       1.10861645       14.51361834       16.82857986
  635      1       1.29359984        2.84596650       24.06718457
  636      1      18.24588327       22.08291537       15.01171807
  637      1      16.91188620       26.45343882       26.67097155
  638      1       5.70018148       17.61053757       26.02915676
  639      1       9.09764190        8.87476988        0.14061971
  640      1      23.62512722       22.08461378        1.15094419
  641      1      27.50559470        3.93562301       25.60394076
  642      1      10.98869436        1.21634720        8.94553151
  643      1       9.24835221       15.11454917        4.55204369
  644      1       4.62965268       20.11738828       20.15412783
  645      1       0.98542909        2.97021096       11.50239527
  646      1      14.49432492       27.12869209       21.89991870
  647      1      19.33174731       13.76546345       25.51864763
  648      1      21.33441512       15.79606679       27.43472848
  649      1      12.34536712       15.24738730       24.86210069
  650      1      21.57824913       18.23940941       16.73800694
  651      1      20.25602769        6.49695881       19.04719829
  652      1      26.81426733        9.60046853       11.57692387
  653      1       5.20867272       13.99550934        9.28881038
  654      1      25.41198611       12.05077423       18.12032393
  655      1       8.06888530       20.86231353        3.64156427
  656      1       1.78456081       12.57134516        2.14035759
  657      1      11.98934995       13.03297284        5.97416293
  658      1       6.70050082       15.98339699        1.85730860
  659      1      26.23557336       20.35545909       26.29398723
  660      1       7.87189485       22.67507147       19.07972394
  661      1      16.25567982        7.56540890       26.66000305
  662      1      19.39447463       18.53632805        3.30694869
  663      1       1.01138281       16.15268966        0.78588134
  664      1       1.17777779       25.44878854       14.29320718
  665      1      17.14827179        9.79937636        2.38706905
  666      1      14.99253856       14.55015636       17.55349838
  667      1      12.05993265       12.62400160        3.61757652
  668      1      13.04088388       19.86141072       13.03331613
  669      1      21.17247903        9.10604836       22.07490016
  670      1      20.74500556        4.91039918        8.81513226
  671      1      24.18879204        7.63451119       19.24073168
  672      1       8.66558479       11.75361729        6.93046709
  673      1       7.52348551       13.63817644       15.31091812
  674      1      16.41152935       27.27059186        7.49382648
  675      1       1.51636538       12.81921139       10.26203462
  676      1      25.63232838       11.52556963       10.81385247
  677      1       8.21795005        4.82450215        7.08910978
  678      1      20.29088153        4.62300690       17.61510956
  679      1      10.44803622       18.61324442        0.96872562
  680      1       1.95759578       22.75493920       22.09074177
  681      1       3.40217532        2.46864396       19.83334230
  682      1      12.68685118        8.62442353        5.03814804
  683      1      19.92580512        1.96685427       21.62434331
  684      1      15.32523232       23.84483318        3.77994061
  685      1      23.42738674        9.76797844       15.86754798
  686      1       2.19870289        8.93603659        3.17325733
  687      1      22.38911513       10.16981908        2.53829893
  688      1       4.26299768       12.30983121       24.31742183
  689      1      20.68327887       26.21951765       12.45678565
  690      1       5.30185851        8.61613510       18.91194679
  691      1      16.92491462       15.40737170       18.47555412
  692      1      20.91351888       10.24580348        7.17400746
  693      1      15.61670936        5.29836035       26.21034597
  694      1      18.96867734       17.80762006        5.70996637
  695      1       1.92201650       25.50154565       25.71990967
  696      1      21.35580673        6.51728395        2.14067524
  697      1      23.50096981        8.16215622       27.09746659
  698      1      19.05455208        0.67778495        5.13911795
  699      1      20.94498979       11.80193811        3.62116900
  700      1      23.53661028        8.37238462       21.64516630
  701      1      21.19909672       27.62014010        5.12238449
  702      1      24.95855753        8.80754350        8.57279945
  703      1      10.72288644       23.11360326       21.07144140
  704      1      10.51943334        6.75964871       12.09706715
  705      1      22.36557701       21.66507799       14.99278774
  706      1      19.29429214       15.85070388       22.03256921
  707      1       0.28947200        3.15343521        3.58490684
  708      1      10.78097744       26.76637323       21.42470305
  709      1      15.10080911       19.35779723       14.34004082
  710      1      16.41537856       27.61329314       20.62172586
  711      1      23.31255040        4.45984545       25.61015647
  712      1      14.52435063       17.40885598        0.43109207
  713      1       8.70664149        0.57869687       24.16048024
  714      1       5.42473134       17.69834147       14.61835101
  715      1       2.48508013        6.50619886       19.98952172
  716      1      16.26716607       20.07074818        9.82004204
  717      1      10.15477257       18.99179799        6.32670507
  718      1       1.20727064        0.02291107       13.55182341
  719      1      11.34302837       10.72402033       25.45959907
  720      1      25.43777154       19.43344725       16.01661132
  721      1       1.99342529       20.02952156       18.04309428
  722      1      19.14097058        2.60394046        3.78535148
  723      1       3.53026552       10.18275225       27.38322647
  724      1      24.08912760        4.80631447        4.20243714
  725      1      12.31827839       11.84801973       27.39422185
  726      1      10.09857643       13.38925664       20.24601932
  727      1      23.28254568        8.85401479        4.24544974
  728      1      13.70338746        1.91788394        5.99132933
  729      1      23.36186917        7.30323388        7.80792462
  730      1       0.14998335       16.06712510       24.39286700
  731      1      26.80544024        2.68830386        5.63798776
  732      1       0.44123212       21.20589795       25.15464942
  733      1      26.27398452        4.41375824       19.38212093
  734      1       7.24815544       17.95132396       17.86444328
  735      1       1.45255218       11.57522367        5.96096478
  736      1      19.22723010        2.11864747       14.24191797
  737      1       7.73425081        1.86262502       20.45128500
  738      1      20.93134751       14.35227080        6.43699503
  739      1      12.91014625       11.54474389        7.51854108
  740      1      13.75250408       18.68847988        7.79387004
  741      1      23.14917099       14.52132245        2.82752579
  742      1      19.17662890       11.49985395       15.94127345
  743      1       8.24126463       13.62433039       18.81979754
  744      1      22.92181135        6.78382475       25.23074705
  745      1       7.07574040       21.80125931       24.69374908
  746      1       3.33198462       21.33516025       10.66134591
  747      1       0.98630611        0.50152239       23.54669990
  748      1       6.20132785        9.09239099        2.56867978
  749      1       5.65638520       17.27690134       10.83528366
  750      1       9.97094429       26.23493641        6.57319372
  751      1      18.44004206       19.39621816        9.38730320
  752      1       9.21473556        1.77303348        0.11464489
  753      1      22.56493377        2.60044781       15.87691782
  754      1       3.79991845       20.27480315       23.87542087
  755      1      15.73931399        3.34547670        5.44004132
  756      1       7.12764577       18.83694536        4.42710133
  757      1      23.15137840       17.05956321       27.10121387
  758      1       3.75862688       20.24540555       12.73680878
  759      1      25.55712140        9.62874567       26.40391778
  760      1       8.81908428        8.94205522        9.42161291
  761      1       0.09416595       17.98991423       12.25653697
  762      1       3.11351121       17.19658279       14.03687249
  763      1      11.00893072       19.70242774       14.40581967
  764      1       7.40300892        1.73058883        3.68114056
  765      1       2.66325425       14.77678832        1.93895151
  766      1       3.75776741       17.64250394        4.10421293
  767      1      19.18320336       18.68349465       19.55603320
  768      1      14.60753031       18.13213826       25.86980886
  769      1      18.61025573       23.02486047       20.87128091
  770      1      17.10462814       16.50684834        6.50331208
  771      1      20.78451768        8.84369188       18.40004399
  772      1      24.64146960       13.07696787       16.07994066
  773      1       8.70148282       23.40081971       24.17949271
  774      1      14.01656455        1.93340368       18.64156669
  775      1      20.14812206        2.66998872        1.54492795
  776      1      10.47248996        7.17852531        9.76742242
  777      1      20.62846072        5.53681743       21.14348588
  778      1      15.60414321        2.88593651       12.91261205
  779      1      13.28177434       11.82684907       11.17664008
  780      1      19.39246388        9.09646707        8.70131808
  781      1       7.39963984       26.94353000       16.26955978
  782      1       4.77610075        7.70483172       10.01737009
  783      1      24.57816835       26.79132998        2.48875396
  784      1       3.64229264        6.08341761        0.50140809
  785      1       3.73831493        5.15665679       23.04563317
  786      1      13.65030738       23.59201701       17.65758088
  787      1       7.19941583        6.93081297        6.81709524
  788      1       9.83597937       13.71382080        6.37912984
  789      1       4.97970461        1.95728589       23.31776843
  790      1      27.25669634        2.16494298       20.36878015
  791      1      22.07339871       15.38274849       10.02107893
  792      1      21.48402461       13.50677625        8.63854645
  793      1       6.53429788       12.02401515       23.64758792
  794      1      23.91561764       12.23167652        6.00097124
  795      1       6.13560864       26.20078914       19.25548065
  796      1      27.52707737       25.02294154        2.43314741
  797      1      25.01239000       15.15802614       12.24475125
  798      1      25.74418234       13.69666890       21.92004967
  799      1      15.14033837       25.41716270        2.15554831
  800      1       4.55739286       14.14917207        5.38601116
  801      1      10.11738122        6.24223470       24.05463650
  802      1      10.73412880        7.48268727        4.37524679
  803      1      26.67053779        6.48654503       16.41455619
  804      1      20.09649389       20.86474868       23.66863649
  805      1       9.45776047       22.97687439       12.91715912
  806      1      21.15053491       23.64283370        5.68109541
  807      1       1.72091876        9.27767104       26.45940048
  808      1      10.75142238        3.41907634       17.71912942
  809      1      21.09817829        3.67231164       14.35351010
  810      1      21.02364699       20.08927612       26.93301318
  811      1      27.57896282        6.27613567        4.91060769
  812      1       8.54133225       17.03917813       21.51688479
  813      1      15.89243068        5.93614640        8.23212064
  814      1      16.54679223       11.84135150       26.75823317
  815      1       8.38834740       14.71967645       25.25393289
  816      1       7.61334444       24.69061932       22.55469751
  817      1      26.40840220        7.87893082       24.82818213
  818      1      14.56137272       10.97222293        0.03299629
  819      1      11.65236397        3.04482329       12.17633051
  820      1      10.83969267       12.38884387       14.43012109
  821      1       1.68098078       18.21949877       19.55899153
  822      1      13.77293103       21.04710324        7.68161617
  823      1       0.79247193       11.33700579       19.98039716
  824      1       0.68609327        3.65507500        9.11661689
  825      1      10.35756343       14.74057776        0.92444543
  826      1      27.33319185       23.73721469        8.97831211
  827      1       6.20115155        5.24221759       15.99225782
  828      1       0.90040345        0.90640155        2.98846951
  829      1       5.91024985        5.65619967       22.15320042
  830      1       8.83700646        9.64938006       11.76138555
  831      1      26.52261480       10.91386943        3.41133449
  832      1      19.57214389       11.25296346        5.45417891
  833      1       2.16655649        5.42042843        8.54033654
  834      1      15.45096819        0.03951756       15.26891700
  835      1       4.16227452        0.93698443       21.42326838
  836      1      25.74005365       12.26656581        1.66992818
  837      1       8.35526822       24.63070234        5.72438236
  838      1       2.68207911        4.45669212       21.07113665
  839      1       8.02096568       24.61695448       15.92377179
  840      1      22.03808086       26.72263154       19.78322000
  841      1      22.26319103       23.19289364       21.45949950
  842      1      10.33713178       15.38144873       21.60045461
  843      1       5.27705502       18.78668195        0.44493993
  844      1      12.29473666       10.20281756       20.45179053
  845      1      24.98100858       15.66902906       26.58784880
  846      1      13.29036544       24.81821387       24.94301899
  847      1       1.98431579        0.74856743       11.36539335
  848      1      24.35050434       15.54237610       22.73183527
  849      1       5.85092311       23.25582741       12.80555576
  850      1      19.13678309        7.94945487       12.46727501
  851      1      17.49464479       21.46103096        1.78804024
  852      1      15.63437618        2.42943103       15.22384820
  853      1      16.73746055       10.70067173       24.62156269
  854      1      15.33392187       13.21496750        5.56869874
  855      1      11.67181486        2.35836768       19.63574866
  856      1      11.44732903       22.57830667       17.29813136
  857      1       1.97375359        8.43223206       14.11975398
  858      1      23.21253593        0.77707609       22.89346324
  859      1       6.83529227       21.06980115       15.42870275
  860      1       9.01398814        4.36570667        5.00604290
  861      1      10.44869572       24.38488194       15.98705187
  862      1       3.34304585        5.29306707        6.35772001
  863      1      14.26273349        1.50769863       23.23229536
  864      1      20.26148227       10.24464991       20.25284947
  865      1      18.53970059       12.39359911       13.76261945
  866      1      27.25400547       26.32384322       17.94959027
  867      1       6.80333940        8.32032828        0.40018310
  868      1      11.07162198        5.25392889        4.51851131
  869      1      22.77650136        0.28962378       27.19687365
  870      1      23.67829352       17.03878407       17.23273759
  871      1      20.97859401        4.68519725        0.58644160
  872      1       5.26908476        8.63809471       12.09467414
  873      1      25.05873331       10.12020085       21.29296714
  874      1      13.91759170       16.40112409       16.60830291
  875      1       3.36819001       16.95107559       10.22078907
  876      1       4.43642150       15.23488756       16.76876532
  877      1      21.82265722       13.82405909        0.95110226
  878      1       2.93753878        0.91391095       14.90672673
  879      1       3.18554305        6.76597294        2.78647074
  880      1      26.16636038       27.52287426        9.46678881
  881      1       6.70739964       11.33410983       15.95249557
  882      1      15.10680389       18.46293092        4.21867151
  883      1      23.04620085        9.32012875       18.13606658
  884      1      13.79639716        5.82369929        1.93956324
  885      1       5.03713842       26.39129202       10.81377419
  886      1       2.75882624        7.08901178       24.09913863
  887      1       0.43775718       27.59986136        8.02739431
  888      1       1.91396265       24.51506704        9.22268829
  889      1      18.79965989       17.17023821        9.75361973
  890      1      22.45128586       16.69674332        3.00138771
  891      1       1.57409504       15.52381146       26.30301019
  892      1      12.29579804       16.63542391       20.99811950
  893      1      13.59941856       21.87513742       11.82011093
  894      1      25.95077102       25.74524283        0.61534536
  895      1      12.16825771       27.20111152       27.42783141
  896      1       2.83876775       13.77534930        8.64590126
  897      1      19.42597421       26.21441274       14.58105992
  898      1       2.94599410        8.87510739        9.04921176
  899      1      22.82564628        4.41531830       21.50086096
  900      1      25.15540009       26.66187815       13.46472636
  901      1      17.54286803        7.23671427       22.91693436
  902      1      20.79167601       23.85236818       12.50192833
  903      1      17.07027144       25.92841597       14.50748126
  904      1      26.67580669        5.99167518        0.89966337
  905      1      17.76143323       14.36913869       14.75621538
  906      1      14.25870014        8.77156129       27.01155524
  907      1      17.10862828       26.90568280       18.38989205
  908      1      23.94817223       27.59383021       20.84006372
  909      1       0.64995675        2.82897009       16.90480029
  910      1      11.30013601       26.49275500       16.65891212
  911      1       9.61358425       26.10917943        2.12825007
  912      1      26.70484788        7.94572867        9.88227250
  913      1       5.97494845        2.51751573       10.97395595
  914      1      20.38833316        7.81230644       14.67321491
  915      1      22.09108739       26.45060702       23.58528052
  916      1       6.89280685       11.30599746        5.51087893
  917      1      24.63111446       22.14835967        3.29916941
  918      1      22.23118333       20.20579760        1.28534768
  919      1      26.66392159       10.13140690       17.32752353
  920      1       5.41115331        7.37078943       15.52588179
  921      1      11.33195268       12.11729521       23.53432399
  922      1       8.89299897       20.90622854       13.98569011
  923      1      13.57488106        5.25969309       22.62260364
  924      1      17.52627330        8.52177782       24.92619708
  925      1      17.28976832       24.52221757        5.15586218
  926      1      26.10023815       14.99335121        8.63487091
  927      1       5.68548874       18.80539125       12.59019970
  928      1      11.63617295       27.64862253       14.48544160
  929      1      16.45104996       12.02145956        9.05503198
  930      1      13.65048817        1.27358923       26.75529407
  931      1      17.76047349       19.26469240       17.68533283
  932      1      19.53753073        1.10896890        9.32228361
  933      1       3.41389863       13.07634449       17.27288455
  934      1      20.00084482        4.41104161        4.98899370
  935      1       2.35451411       26.90140113        9.25057415
  936      1      21.01469018       15.72746620       20.15477443
  937      1      15.45370809        7.24351893        3.08452051
  938      1      14.92930086       10.64163623        2.30431778
  939      1      22.39809410       11.96243627       12.92430963
  940      1      14.69377717       11.81202878       14.41841891
  941      1       8.12933502       22.20177674        5.60271505
  942      1      15.77079180       17.20286289       15.15653957
  943      1       5.70182938       21.96879781        5.78236721
  944      1      12.64943860        7.80786123       19.97331864
  945      1      12.23572477        2.14400335        2.37937276
  946      1      25.99288089        4.11861216        9.40337284
  947      1      15.44748624        0.52522424       25.33356019
  948      1      12.51057142        8.25216764        9.20704143
  949      1      15.55315854       22.30522268       18.75988274
  950      1      21.38837613        3.22531899       24.96152787
  951      1      25.25833375       20.67034529        8.49451479
  952      1      10.35228634       21.67661586        9.23655761
  953      1       8.70398555        9.51059076       21.83556400
  954      1      18.00373571        7.45651341        7.44909078
  955      1       9.94010773        2.74152872       10.37256327
  956      1      23.47218576        8.08330693       12.66841522
  957      1      21.04170807       15.21336030       25.16325638
  958      1      13.47018390       21.71566250       27.03569117
  959      1      13.63499498       24.44713847        8.60848989
  960      1      15.16200615       15.95963386        9.73944727
  961      1       9.64234985       13.41903926        9.97270723
  962      1      21.03133507       17.11261942        8.89684032
  963      1      26.46072360        2.50216672       12.40123425
  964      1       6.08634260       27.14180277        6.83763684
  965      1       8.58115105       14.69805002       11.75344447
  966      1       8.02724451       20.87833946       26.60192781
  967      1       7.38081276        8.94219762       15.44015694
  968      1      18.35339799       11.28473001        0.72692274
  969      1       4.56254004        7.50798383       20.80680634
  970      1      11.76634339       13.21747857       18.52978520
  971      1      26.36350664       21.24037007       19.53936095
  972      1       0.31962675        8.09196720        6.40892039
  973      1      18.34809486       11.69343355       23.08945016
  974      1       4.60147034       22.95615034       17.66020053
  975      1      11.23639093       10.05177642       14.67896918
  976      1      25.11830918        1.50477768       24.08006212
  977      1      19.18561963       22.77208607       11.10487944
  978      1      26.13758139       12.18031433       14.36748375
  979      1      17.13476529       27.25280169       11.21822544
  980      1       0.97959848        0.69620570        0.60582074
  981      1      14.18883311       11.61377184       20.72052138
  982      1      23.29180941       25.88616497        7.60001991
  983      1      15.16481512        3.47907088       22.29305877
  984      1      24.20906069       13.49677477       25.81545466
  985      1      12.86107727       17.40788145       18.67259836
  986      1      25.85747472        4.83326883        5.70948575
  987      1      14.87164899        5.78855946       17.38437007
  988      1      11.55522484       19.84405122        4.63125788
  989      1       3.56516357        3.33277332        2.92651620
  990      1       8.61208974       17.31662581        5.55721491
  991      1      25.75754106       13.61312800        6.48394758
  992      1       3.97575737       23.66635553       23.17523232
  993      1      17.68068385       16.95741733       16.75480344
  994      1      13.29365148       25.51630662        6.28928337
  995      1      22.31359965       13.35494367        4.71041567
  996      1      24.37475006       18.59976059       13.89439218
  997      1      19.24433220       25.26773526       20.88803299
  998      1      12.25243121        5.32456706       12.56342034
  999      1      14.30704720        2.17095505        1.09525754
 1000      1      18.04073763        9.64365584        4.67661568
