run_id:  1007  total_energy:   -3025.417186197927

  1000 atoms
  1 atom types
  0.0   27.664  xlo xhi
  0.0   27.664  ylo yhi
  0.0   27.664  zlo zhi

 Atoms

    1      1       0.02894071       18.76691461        6.76712352
    2      1      14.62593737       18.57232259       19.61143218
    3      1      19.84093721       15.24735057       15.87065219
    4      1      17.37856410        8.35409743       17.14692400
    5      1      12.81942089       12.81806224       13.22679899
    6      1       8.85154668       16.65330955        0.74078317
    7      1      13.86831087       23.98402189       26.99233533
    8      1      24.93071421       22.94029155       12.36241748
    9      1       0.65924913       26.01412629        6.10792666
   10      1      26.75158619       27.51401171       27.09482803
   11      1      26.24647444       24.02106915       26.53086599
   12      1      24.72541549       12.83217112       12.64800873
   13      1      11.75305847       16.38758063       11.38618188
   14      1       8.77026475        2.82950577       23.39528697
   15      1      22.30155547       12.20437292       22.82547314
   16      1      15.99670705       21.58634926        7.97742114
   17      1      22.70691510       17.49944617        5.26493920
   18      1       5.62953088        9.39253080       26.31718153
   19      1      25.02603363       10.32584711        5.10510684
   20      1       8.66106917       12.93783220        1.27825158
   21      1      25.63598325       18.12044193        1.78839554
   22      1       2.99715077       23.65117203        7.18767481
   23      1       4.99639934        2.31490707       17.97891568
   24      1      10.39959918       14.36446515       23.85894559
   25      1       0.36217781       14.93307931       19.06453244
   26      1      27.42910134        9.49320307       21.06233299
   27      1      12.91393253       18.17073455        3.63062090
   28      1      22.33368788       19.11620469        9.32609897
   29      1      17.74705301        3.21753794       15.56281681
   30      1      27.30237404       22.38545803        5.60110422
   31      1       4.82384592       21.76600348       14.25458208
   32      1      16.67115208       18.82713091       22.83959607
   33      1      16.96440385        2.93493829        3.35452364
   34      1       9.67656191       16.73264345       12.32938455
   35      1       8.23526028        6.08528747       12.54316035
   36      1      15.73990078       27.19534356        3.59433683
   37      1      10.63831385        6.58948370       20.11873614
   38      1       7.06103655       26.92449449       23.02846584
   39      1      21.86391042        2.69016541       18.05388494
   40      1      10.72613785        0.53797703        1.29681855
   41      1      10.81727518        7.14831636       27.65821039
   42      1      10.63757152       25.35841455        8.65423718
   43      1       4.51862908        0.67034166       11.50249920
   44      1       8.91282673       18.78150437       23.15417047
   45      1       1.37718550       13.18664425       26.43526695
   46      1      23.70477194       11.01839387       19.45835924
   47      1      14.36129281        7.67337675       14.47270744
   48      1       6.61289268        4.99915226       25.71532170
   49      1      14.98091900       20.37507315       25.92075877
   50      1       9.77877512        4.83686209        8.97418566
   51      1       1.39791123       18.52096304        1.07065669
   52      1       7.37357898        2.40831082        1.29681410
   53      1      24.49696022       19.93116500       22.67213983
   54      1       0.33492257       21.47777029       13.32975877
   55      1       6.88125821       21.94292998       11.06642384
   56      1       4.66267962       24.47056199       19.60036701
   57      1       1.89617501       18.83847237        3.35291530
   58      1       5.77486414       11.75075991        9.31283891
   59      1      27.19642970       11.74926181        7.38545415
   60      1      23.39584639        4.39956601        0.16416426
   61      1       2.40997198        3.05474756       15.25247892
   62      1      18.78640512        0.71344678       23.30689494
   63      1       8.13357851       11.67283909        9.24701331
   64      1       5.43570980       27.57173318       17.40898446
   65      1      20.42094800       21.76052783       21.54824021
   66      1       7.08525887        5.13098256        3.62414331
   67      1      15.94766850       13.21932417       15.93939211
   68      1      24.25638862        7.08089603       23.13497035
   69      1       0.20263125       12.28972473       24.63280251
   70      1       7.17735868        2.98685088       18.45188430
   71      1      10.38786852       17.37833410       14.60938562
   72      1      13.73342379        9.71862990       17.35027370
   73      1      13.30448996       21.09460634        1.55914074
   74      1      24.84510292        3.49784296       14.76596826
   75      1      26.36545588        1.83734924       15.77389888
   76      1       2.67725011       10.68162706       10.64794459
   77      1       2.65443720       23.58623727       11.15274660
   78      1       7.70019655       20.01128673       12.16776156
   79      1       3.86610129       16.84514665        7.80162905
   80      1      23.74762883       26.55961113       16.58665576
   81      1       7.00186790        7.53821754        9.03801837
   82      1      18.81720387        3.99400224       21.35517476
   83      1      11.03822894       18.97647195       26.25021037
   84      1      14.75786235       27.41495633        5.80946700
   85      1       0.71137056       21.96885343       18.56955183
   86      1       5.67919812       17.98225090        2.76549317
   87      1      26.83436045       25.12167152       19.90975576
   88      1       9.56088779       14.98969774        8.23868401
   89      1      25.29982420        3.74920558       24.42102412
   90      1      24.22709702        5.78582747       15.79540944
   91      1      11.78153494        4.50071823        2.42242266
   92      1       0.55436874       12.59259682       15.63827849
   93      1      20.01348956        0.35440827       15.58163255
   94      1      16.09626697       10.25354694       20.34341712
   95      1      22.83111579       14.20427547       24.04729643
   96      1      17.72361420       20.81707239       23.70922188
   97      1      10.11753412       19.77972497       19.79870374
   98      1      12.97872656        9.46984827       11.21801255
   99      1      25.50813410       10.08778066       15.24539313
  100      1      27.44994220        6.22043812       26.53852148
  101      1      22.76754251       11.61719954        8.03709124
  102      1      15.03077322       26.03967973       23.99045317
  103      1       8.99814734       14.69103368       16.85721190
  104      1      18.90653328       22.90151451        5.06395869
  105      1      17.88719439       26.51034742        4.10946186
  106      1       2.92772020       25.46430993        5.77712087
  107      1       9.68794703       10.01060055       18.14307507
  108      1      11.20457437        5.34961392       22.12769230
  109      1      23.76121383        1.40058410        2.60929693
  110      1      16.04845927       24.52309236       27.66163174
  111      1      13.85016503       13.61913306       19.48907083
  112      1       1.79737459       15.70606290        7.49665134
  113      1      11.09808206        6.91944860       16.51900550
  114      1      12.88150905        7.74613147        0.97297953
  115      1      23.81385971       24.44918164        9.46391087
  116      1      17.19826255       14.59255368        5.21558735
  117      1      19.90349440        4.88852570       25.93452786
  118      1       8.68317367        2.38141792       14.72475702
  119      1      18.94059051       18.94882639       13.05648447
  120      1       8.90587683        2.12616990       17.06152228
  121      1      12.55460549        5.88591487       14.81454889
  122      1      18.14074037       15.16023115       27.07210577
  123      1      26.97191287       14.28348436        4.63513462
  124      1       5.82834705       19.24172839       16.49211945
  125      1      14.48142434        6.79002236       21.04229519
  126      1       2.63022758       12.35158400       20.88081434
  127      1      19.68945312        6.28516601        3.72501709
  128      1      11.12219980       13.92289947       16.26822726
  129      1      20.91906769       16.69896714        6.59533963
  130      1      14.91654505       22.21714795       20.97096867
  131      1       5.08432125       11.01410890        7.09802965
  132      1      14.91392692       17.21391474        6.21127136
  133      1      25.16147705       25.20763919       15.23767066
  134      1      16.85512373       22.74240591       22.47486448
  135      1       5.23948890       23.20838644        7.65566517
  136      1       6.06928358       20.98619552        0.34139672
  137      1       9.51268658        2.01581451        4.96826894
  138      1       3.02201173       19.45271862       27.32056824
  139      1       6.29016457       15.02277588       11.22232185
  140      1      13.00073826       15.82209269        3.84664183
  141      1       9.60656392       24.48183636       26.11495234
  142      1      26.87036966        0.66375318       13.76638951
  143      1       9.15815629        9.68870475       25.61075194
  144      1       3.90802645        9.01756330        6.89011769
  145      1      17.17908687       23.47210407       10.81095707
  146      1      21.45664371        8.63996514        1.20038170
  147      1       1.83563355       21.88207008        5.95828561
  148      1      11.45240567       26.90938882       10.27043031
  149      1      13.76002113        1.83553794       11.98524864
  150      1       7.36524995        1.17927089        7.91460910
  151      1       0.43865682       12.26012949        0.67779221
  152      1       0.10786717        9.16678142        2.45917863
  153      1      15.44346427       20.62103173        4.74414110
  154      1       7.80913559       25.62029347        3.65182250
  155      1      14.07906835       14.37919032       23.39631356
  156      1      24.70009187       17.66831494       19.21087240
  157      1       2.08109680       24.88579102        1.71208143
  158      1       8.73551355        8.29211021        5.43774991
  159      1       1.27911822       14.17232781       12.25445788
  160      1       2.04468551        6.94670423       26.43815570
  161      1       4.26758110       20.59650484       17.93044587
  162      1       5.51386502       16.35875107       18.47485782
  163      1       5.07987158        1.14080958       13.78653588
  164      1      27.46079484        7.08481240       14.31233938
  165      1      13.34872700       14.86196603        8.56002891
  166      1      19.42348902       23.58180382       26.71640680
  167      1       5.83939406       15.26101410       14.90967257
  168      1      11.02015990       18.62175835       17.92895428
  169      1      14.66934835       18.28018591        9.85535387
  170      1      26.60446129        7.23964373        3.08768373
  171      1      11.50766171       24.51140125        2.76441875
  172      1      20.64013418       15.34957965       12.08524680
  173      1       7.36468506       17.97273180        9.29593582
  174      1       1.72759849       14.48114350       21.28834155
  175      1      16.35016059        9.18322125        6.29706550
  176      1       2.24850883       21.13555040        3.70348230
  177      1      18.11399649       13.58774352        8.55898399
  178      1      25.71544468       23.30536319       22.57823147
  179      1      11.51596618       18.22751349        8.04339075
  180      1      25.54921956       18.08861349        4.07170947
  181      1       8.27518311       25.22983064       19.00602076
  182      1      22.53238981       21.03074998       18.70010767
  183      1      15.39518308       21.75872566        2.75633980
  184      1      21.11807484       26.85843540        2.96783977
  185      1      24.98557145        1.44769263       19.37957615
  186      1      21.93419082        8.34090100        6.16071152
  187      1       0.83134763       23.33914616       26.24892253
  188      1      12.55930083       18.42155109       22.56857393
  189      1      17.44710210       22.59043116       27.41022709
  190      1      14.92069543        5.54794548        6.08359775
  191      1      14.27346531       25.56094331       12.35317504
  192      1      10.80823139        3.08653039       22.00628310
  193      1      25.74262333       25.24181587       24.08976699
  194      1      21.79063541        0.95839022        1.61865339
  195      1      10.26722305        3.55008880       26.72997733
  196      1      18.02980189       24.71321765       17.47950218
  197      1      20.89712995       20.77446033       17.03744915
  198      1      16.55852031       25.35197957       12.24406804
  199      1       3.41557679       26.90356049       16.44630567
  200      1       1.24882158       18.08250869       10.19260391
  201      1       3.99789500       15.94140206       26.20751943
  202      1      16.02381593        5.78383624       19.39555948
  203      1      22.03482525       20.54203794       11.24535152
  204      1       3.76483729       24.85059887        3.47288555
  205      1      18.28052051        5.71341081       12.34000424
  206      1       9.15583055       10.58526585        1.87570728
  207      1      26.81037554        5.47499179       21.23199187
  208      1      26.23996594        7.91596301       18.24720716
  209      1      26.88232272        4.86975383       13.19183620
  210      1      12.93934479        8.98537975       25.09976370
  211      1       4.67949709        9.27774778       22.37111031
  212      1      24.78304435       22.19112210       26.76095134
  213      1       0.17832243       17.87729377        4.69399320
  214      1      23.17164433       16.69709406       20.94256213
  215      1      13.18415807       25.92788712       18.13028766
  216      1      14.13334712       15.27522733       21.18041879
  217      1      26.26762735       15.99681126        1.00174588
  218      1       4.86496484        3.19146143       26.42619610
  219      1       3.81493956       18.63477506        6.35528562
  220      1      20.48197816       10.71564495       23.76225417
  221      1       9.90365870       22.35844800       27.24623705
  222      1      11.38095733       26.01342507       25.47832144
  223      1       1.74142011       12.30716600       13.61365767
  224      1       9.78732138        8.86795483       16.11016505
  225      1      17.31449432        3.78781980       19.55843866
  226      1      16.54312224       11.42310428       12.90320867
  227      1      25.54729812       14.47207666        2.66147537
  228      1       6.13501137        5.98021052        0.13355236
  229      1      13.65538363       12.06444943       22.99427528
  230      1      26.69209134       20.19113674       21.57415725
  231      1       7.62866366        5.61577066       10.26181524
  232      1      22.61076819       19.77579417       13.45932288
  233      1       4.41322679       12.17239835        2.35166293
  234      1       1.11700086       19.02974753       21.62691933
  235      1      21.38887841       16.13121165       14.12223245
  236      1       1.81082664       27.05369135       18.23656898
  237      1      17.04989644       24.92162139       23.60812731
  238      1      20.04921610       24.01554499        1.30268829
  239      1      14.20766661        6.10320301       11.43879573
  240      1      22.30087387       25.22379512       17.96862790
  241      1      14.68356539        9.96380302       23.67956523
  242      1      19.56690264        7.83250800        5.39822845
  243      1       5.40870753       18.68827600       23.73705151
  244      1      24.84440070        2.69874561        0.91044413
  245      1      12.16369545       12.83320256        9.41133843
  246      1       6.89670804       24.97681480        7.51814429
  247      1      19.01165353        5.07236342        7.12269499
  248      1      12.17848852        3.65761615       15.82910597
  249      1      22.53259432        9.82496521       11.61694155
  250      1       1.41414631       18.84865602       16.11393099
  251      1      16.08199602       14.16555796       26.59629797
  252      1       3.02660271        1.13839373        3.76083913
  253      1       5.18671872       13.11102744        0.27740591
  254      1       5.73554729       23.46809552       21.52720156
  255      1      11.84003568        6.84388238       25.47298390
  256      1       1.00620476       15.77830218        5.24307966
  257      1      24.27772021        0.29723211        7.86960128
  258      1      24.65366227        5.18498115        7.77181933
  259      1      15.48072538       27.58153891        9.57651476
  260      1      23.37690719       18.17468066        1.44558486
  261      1      21.13255444       19.94340712       20.30706950
  262      1      25.53290602       16.70499686       24.53709290
  263      1      24.90445222        1.23434773       26.64106443
  264      1      19.95023254       16.88516615       24.07810733
  265      1      12.82770851       18.72266535        1.44482215
  266      1      17.48320283       21.19667067        6.12143679
  267      1       7.57806560       26.66705886       10.76879273
  268      1       9.35272756       24.98745481       21.05981770
  269      1       6.93856623       19.95715551        8.21973117
  270      1       5.44353275       21.53260137        9.33025300
  271      1      16.37369096        3.67147343        9.43830845
  272      1       4.91574872       10.92724803       11.66128973
  273      1      21.77286287       12.01662267       20.40579198
  274      1      16.04682674       21.50867732       11.59342349
  275      1       0.08559159        9.96962767        0.23874478
  276      1      22.27502516        3.79426066        5.47766140
  277      1      17.78722550        7.27555961       19.15874851
  278      1       4.86752996       17.15078010       21.97586965
  279      1       8.91861102       22.95239433       10.54972292
  280      1      20.34200169       24.69905043       16.49516238
  281      1       9.64996660        9.64109875        7.11374366
  282      1      26.77757565        0.81701700       22.32180543
  283      1       1.99827325        4.97495053        4.28618115
  284      1      20.91722245        1.12993527       26.02344683
  285      1       2.62677606        5.84313381       17.63763829
  286      1      22.78938993        7.69780989       14.80412212
  287      1      15.50374051       12.61349666       11.14433493
  288      1       4.37786849       14.69255882       24.26250767
  289      1       1.42624964       10.28581987       24.29268724
  290      1      21.41473266       25.35882150       21.61583658
  291      1      10.38347892       11.22976013       21.56443389
  292      1       4.11113956        4.09586964       16.61496693
  293      1       2.86693802       20.62992008       21.72971584
  294      1      23.43427765       25.68931318       27.21640235
  295      1      20.68022228        0.98592064       19.43796894
  296      1       0.09798130       14.07170112       23.02613002
  297      1      17.84339198       17.54419272       21.25000811
  298      1      14.28797907       15.03374965        0.25537180
  299      1       0.63169914        8.44370461       23.15500923
  300      1       4.78848969       27.07215015        0.58093060
  301      1      19.35585547       25.32524597        8.55317917
  302      1      14.66451744       14.67021828        2.50507835
  303      1       7.23748210       11.05069217       25.65224598
  304      1      17.27603450        4.35726362        1.55748528
  305      1      19.98211698        7.14361209       22.65495682
  306      1      16.71403903       23.92915268       15.57250420
  307      1       4.08740523        9.92718432        2.04570327
  308      1       1.57457557       20.31185468        9.46221924
  309      1       9.48295240        0.84122739        7.05987224
  310      1      24.91999966        1.07782924        5.80050801
  311      1      20.13068587       16.94572759       18.11467370
  312      1       0.96514490        2.96306079       27.63343040
  313      1       3.10301438       10.99609131       22.79205457
  314      1      23.76984491       22.17532848       22.99659376
  315      1       1.39381796        1.65326866       18.75363442
  316      1      14.90124767       27.47412122       17.54419397
  317      1      13.22518876       21.42414965        5.42476911
  318      1      25.71298517       18.98309137       11.90477201
  319      1      24.64029430       18.47140099        9.77201955
  320      1       4.29778192       24.78157334       12.35843111
  321      1       7.77570101       24.34541726       13.63600801
  322      1      12.52576479       17.63867634       24.86343980
  323      1       2.05638099        9.35670853        5.55520798
  324      1      20.29886111       13.02142395       12.28033910
  325      1       9.91551490        0.72834005       19.94330683
  326      1      23.78808236       22.59750104        8.04671185
  327      1       8.36346049       26.47092161       12.86071659
  328      1      23.44951730        5.98564912       11.51095489
  329      1      14.83355632        7.70707120        5.22494263
  330      1      21.38706232       22.43820688        7.95422728
  331      1      23.77586989       16.27618538       13.96568957
  332      1       3.80899285        5.19190185       12.55505096
  333      1      22.56045224       18.78097112       21.81729213
  334      1       0.67399872        3.77143017       21.89148733
  335      1      11.02190949        2.23271271       14.26105808
  336      1      26.35402957       21.20392165       11.75392266
  337      1      19.70526388       20.60155016       11.47270268
  338      1      24.84066913        5.03208014       22.46544212
  339      1      19.88093398        4.38859681       11.01405088
  340      1      19.04418127       19.71961756        7.18007960
  341      1       8.75558390       13.06609058       13.42172894
  342      1      11.45082765       11.04731392        1.93511581
  343      1      18.72366963       19.17455706       27.06219464
  344      1      26.87219718       15.90160319       15.43857378
  345      1       3.53680550       25.85209376       23.97166906
  346      1      10.08721964       21.99275022       19.16802749
  347      1      24.11838312       11.03346536        0.92973433
  348      1      13.48507738        5.12745521       25.07645024
  349      1      25.88600748        8.62735771       13.46470601
  350      1      26.25745376        9.60005383        6.95056481
  351      1      18.22016838        1.13407417        7.27381671
  352      1      26.81703950       22.92074060        3.33199832
  353      1       8.10261707        0.29775578       26.39797910
  354      1      12.94938612        2.31307044        8.24759582
  355      1      19.80009028        8.99270067       25.48316405
  356      1      16.10556869       14.90445769       24.34573698
  357      1      19.75026162       12.46862698       10.02958375
  358      1      18.17353180       13.28552555       19.16477277
  359      1      22.62379925       18.81743270       25.63746650
  360      1      25.92615604       25.31948601        9.90371450
  361      1      15.14215213        4.38513747        0.65704459
  362      1      12.37554909        3.04095844       25.69200558
  363      1      10.16758279       20.39798713        2.74218658
  364      1      26.25430353       24.82831339       12.04749058
  365      1      16.18566972        1.15347406        2.08898491
  366      1      19.00560850        0.73248689       17.78027408
  367      1       6.60186119        6.74882549       24.03428630
  368      1       6.63797214       15.70287310       21.70424207
  369      1       8.38763668       25.88228244       27.55322501
  370      1      15.44026015       20.07719594       18.05254539
  371      1      10.84922951       27.49729396       23.69172592
  372      1      26.95748851        3.60173963        1.53663701
  373      1      23.15773779        5.68445283       17.90361953
  374      1      14.37542284       12.61162992        3.47744463
  375      1      16.83137299       15.47193018        2.98713592
  376      1       6.21458789       14.49848760       19.72381967
  377      1      26.12575033       20.50661864        6.44105163
  378      1       9.04547711        8.35754618       19.79191186
  379      1       3.96642215        7.34502561       13.58353176
  380      1      27.05640871       12.81508230        9.52386270
  381      1      24.64846956       19.93850697       18.28787596
  382      1      12.73279780       22.31041675        9.42722746
  383      1      13.01351521       23.70043510       21.30243583
  384      1      23.93039352       10.50178150        9.80330918
  385      1      18.08899068       11.39308147       20.76949810
  386      1      14.23502971       20.61228978       16.08721352
  387      1       5.83410460       19.70853235        6.20545847
  388      1      27.06518940       19.77191977        0.82767434
  389      1       4.13795019       17.76474068       19.87717458
  390      1       1.05265145       10.93882846       17.31834513
  391      1      11.10963626       22.28887856        1.73319485
  392      1       1.58038559       17.62846922       23.50514138
  393      1       3.76642170       27.26515642        7.12116953
  394      1      26.72626680       21.58894171       15.25824478
  395      1       7.38686273        0.44149522       14.26641011
  396      1       4.56164276       27.17226278        3.03410212
  397      1       5.52451933        3.51376507       13.08900558
  398      1       5.63278314       15.33559341        7.34014110
  399      1       6.31320321        0.04930889       20.90955201
  400      1      27.05463465       17.92365964       16.56658037
  401      1       8.98463091       18.50654211       10.91512944
  402      1       7.90679725        1.30160785       10.21859308
  403      1       1.82025114        4.17561999       13.19406162
  404      1       5.68484320        3.32150407        4.06166648
  405      1       7.42332712        8.25539177       13.02199460
  406      1       1.06666039        7.47729433        8.69127705
  407      1       2.71613309        9.66957812       16.10456453
  408      1      25.30631387        2.23497453       10.42456945
  409      1      19.31286595       26.81854961       10.37904122
  410      1      18.40115152        2.71281541       10.47766455
  411      1       7.57662517        5.38497165       17.89825701
  412      1      18.32517800       17.21044829       25.81983764
  413      1      11.85425151       10.88002728       18.33931708
  414      1       6.16604633       25.18339191        0.21833459
  415      1      14.47979068       21.27284490       23.85804306
  416      1       3.08518732       15.62462791       12.25266183
  417      1      12.21174252       14.23315171       27.12822094
  418      1      21.65498016        1.56565156       10.65972700
  419      1      22.95046509       27.65619895       12.90822106
  420      1      10.70471304       26.43623818       12.67558663
  421      1       6.58753239       10.52281460       21.77817021
  422      1       0.64781545       12.46481786        4.15882573
  423      1       7.74561621        9.77614655        3.81017264
  424      1      19.62287698       23.30614149        9.81101157
  425      1      20.71809402        8.45376440       10.67486541
  426      1      22.38718214       24.12080449        1.01987675
  427      1      17.25005534       20.75345262       26.01356868
  428      1      12.73889472       18.52143593       11.19027203
  429      1       3.43574255       25.08735054       14.76003956
  430      1       5.86119235       12.99410927        4.04866331
  431      1       7.41418178       13.01041200       26.96198019
  432      1      24.90441130       22.91627338       14.62398399
  433      1      22.84767925       22.88727244       11.21101470
  434      1       3.54808727        3.30980632       24.41085600
  435      1       0.71345163       22.85349003       16.42971971
  436      1      21.06367239       25.76764440        6.86824599
  437      1       8.43423047       24.97310421        9.39260456
  438      1      15.95885942       23.77579902        8.75090262
  439      1      12.97480339       25.38982870        1.11858293
  440      1      20.70768131       13.12393630       16.66324321
  441      1       3.83959702        7.92915391       17.14883863
  442      1      17.26145403       25.17315624        7.45270671
  443      1      17.30581189       15.80844016        8.72298389
  444      1      10.10948484        5.07782969        0.84389738
  445      1      15.23090176       14.92324977       11.83040878
  446      1      11.02508661        9.08309079       12.54384512
  447      1       4.37653642       22.30250350        3.80509199
  448      1       4.94513317        7.03749944        6.03302420
  449      1      24.87696041       19.00451884       24.80165935
  450      1       6.47468818       27.35856607        4.38289537
  451      1       9.41614249       27.39828048       17.73455452
  452      1      27.55742385       26.69111861        4.06103903
  453      1      19.56488879        9.34245086        0.09099383
  454      1       1.94221506       22.87104484        0.55197665
  455      1       5.92564796       10.83711960       19.51131466
  456      1       0.56179070       21.63332618        2.02122560
  457      1      17.29526162       11.96536979       17.31971486
  458      1      11.19440360       24.30580587       13.69652719
  459      1       4.65452574       15.23986254        0.69962805
  460      1      22.03013639        3.96577859       12.16172193
  461      1      20.14234900        5.57401173       15.35695336
  462      1      19.80315519       12.88257171        1.88083917
  463      1       4.37838761       11.45636565       15.76096826
  464      1       5.27680685       27.52387807       24.48810880
  465      1      13.08299392       15.11627954       12.92881355
  466      1      23.11909405       22.76589023       25.13791338
  467      1      17.09587378        9.29563085       11.94831002
  468      1      24.59917187       20.21612734        4.70053119
  469      1      21.84941004        2.59983171       22.66247029
  470      1       7.75928284       16.41010896        7.59497172
  471      1       5.34437545        6.86677810        3.71398068
  472      1      25.64265029       11.67964062       25.12357674
  473      1      22.86946292        1.63357461        4.86263142
  474      1      22.49431683       12.01685298       15.40076998
  475      1      27.54996840       21.92109514       22.96206990
  476      1      11.43668321       21.26029635       25.89691379
  477      1      15.73466166        2.26022702       20.24028910
  478      1       7.73287816       11.43314333       18.14798463
  479      1      22.80664122       12.35971467       27.25511757
  480      1      11.84476070        1.29650148        4.51807618
  481      1      12.21385718        4.60511109        8.35052982
  482      1      22.31591216       19.82337988        5.21206024
  483      1      14.48003384       23.03055401       15.50241335
  484      1       6.71141721       14.43317489       23.62949519
  485      1      17.88925665       19.15857576        1.64351566
  486      1      18.69752350       14.98392260        1.71744018
  487      1      24.63517881       24.99622541        6.03937777
  488      1      19.42958822       22.26191651        2.88363516
  489      1      16.11628551        4.84405565       11.65730724
  490      1       9.26959401       17.14145661       16.82664146
  491      1      12.17790788       15.77886630       15.12065883
  492      1      11.87923730       20.34397431       16.45231308
  493      1      27.22480757       15.75912042       13.02310476
  494      1       3.21233428       22.99769727       15.72898396
  495      1      19.09276008       26.11597951        2.12036551
  496      1      17.73984264       22.75304713       18.64790814
  497      1       0.06406971       16.94211995        8.45722638
  498      1      23.48197024       25.10645601       24.95867898
  499      1      20.16955899       27.11104583       24.65056468
  500      1      24.60721870       15.48936775       15.94907969
  501      1      18.88233926       13.35509011        6.32568367
  502      1       6.39369933       21.98429301        2.38871448
  503      1      18.16052346       14.04222188       23.45699170
  504      1       1.68797865       19.35660113       13.62393413
  505      1      22.38619450        0.32700987       15.23307519
  506      1      17.89310536        5.37926680       14.72498410
  507      1      16.03279260       10.06088267       17.98758593
  508      1      22.05317489        6.74871552        9.72881445
  509      1      12.90795587        9.37046735        2.67597403
  510      1      13.84492610       27.55668544       13.53820867
  511      1       3.04256866       15.60992768        4.18948919
  512      1       2.48305891       16.44083177       16.15542352
  513      1       8.65860252        8.08363389       23.83369664
  514      1       7.92442356       16.83217273       26.25550575
  515      1      17.85746037       26.58741215       22.13349134
  516      1      12.70558647        4.77468012        6.07956588
  517      1      13.18553673       23.72004977        4.66564596
  518      1       7.08745708       20.17815597       22.99413714
  519      1       1.37151577       10.18057060       12.54872609
  520      1       9.99172823        5.52466812       18.06284188
  521      1      18.61660509       25.42739209       25.40568775
  522      1      23.21680584        2.01081329        9.03166789
  523      1       3.96203986        5.52227035       10.18050541
  524      1       3.09740157       15.91920146       22.69976388
  525      1       4.10455973       12.23364153       13.53683805
  526      1      16.33400774       17.27034121       24.61621057
  527      1       2.52212137       26.55507676        0.09014342
  528      1      12.87513209       25.99205673       20.59032392
  529      1      20.92649066       18.41685463       14.35897969
  530      1       3.91117233       21.81345549       27.17487260
  531      1       4.66032310        3.32184434        6.17348404
  532      1      14.80893362        8.24114046       12.19368306
  533      1       7.31039213        7.76122058       18.16231052
  534      1       6.49299774        3.33418550        7.57607277
  535      1       4.84609219        8.17796259       24.40344163
  536      1      14.27600773        3.44814035       16.80795041
  537      1       3.23463705        3.69626741        0.50959134
  538      1      23.83355960        6.84404600        3.09692183
  539      1      18.57564098       21.16923993       17.05672950
  540      1      21.09095102       22.64269832       15.38199563
  541      1      23.71338077        3.67243563       19.27292577
  542      1       1.19519636       23.82691709       20.12563643
  543      1      12.88780129       22.99953048       23.61128484
  544      1      13.40302433       23.61736214       13.37450758
  545      1       2.62493117       25.66157034       20.01051675
  546      1       3.03424886        1.58023177        6.11014051
  547      1      24.67506828       11.65502935       22.87642874
  548      1       7.95218136       18.91377818       19.90993876
  549      1      10.88217738       19.43655305        9.95078177
  550      1       4.66787553       22.18924369       24.87131619
  551      1       3.41585697       12.62082925        6.73852829
  552      1      23.88044485        2.37425934       12.64416719
  553      1      17.65384816        6.36801171        2.52368898
  554      1      18.58494907        3.11521105       17.71450817
  555      1      17.56864783        1.83158684       25.19540356
  556      1       6.77015156        3.23561018       22.24873274
  557      1      18.99914913        1.65128989       27.29930724
  558      1      17.75155308        7.96184068        0.80813386
  559      1      23.11574643       23.26257172       19.29217110
  560      1      22.79409392       25.30132905        2.90149883
  561      1       0.10779093        7.38585095       20.03620183
  562      1       7.72375940        4.75865882        1.43647654
  563      1       0.76996450       23.77583993       12.58394286
  564      1      20.27727893       16.73324254        2.15209849
  565      1       7.54901965       11.51909802       12.07587424
  566      1      26.84105612       24.28255663        6.71912636
  567      1      26.69720524       13.09149116       19.74858608
  568      1       0.85745362        2.13521487        7.12728172
  569      1      17.37071206        3.28697041        7.18946979
  570      1      27.40350862       25.01132425       16.02085891
  571      1      20.89200979       22.03525671       25.60909547
  572      1      13.69545507       14.89073914        6.12501728
  573      1      16.90883244       20.35761309       13.49749511
  574      1      25.52944045        0.29009772       17.41483575
  575      1       2.60919483       26.98559758       22.10953351
  576      1       8.90564638       18.79990741       25.51779150
  577      1       6.27858019       24.41032051        2.37530977
  578      1      13.12331202        7.47521041       17.72673559
  579      1      14.56443339       19.62128977       21.87027884
  580      1      15.72153937        8.52462376       21.96843189
  581      1      27.18112422       21.58254637        9.61753079
  582      1      21.23631093       18.76019401       23.74538033
  583      1      23.20398897       23.76426025        4.62671922
  584      1       6.66061987       21.06806675       20.78045017
  585      1      24.43739361       15.97006274       10.12703260
  586      1      20.74162718        6.88723576       24.90145715
  587      1      14.64646149        2.02876218        9.76235123
  588      1      25.87104971        5.80421527       11.15972398
  589      1      13.55433792        9.81538487       15.12554705
  590      1      17.21813656        4.75044465       22.97136256
  591      1      21.34809420       20.23228795        7.37068462
  592      1      18.67861236       16.80052065       12.07292741
  593      1       4.89612834       14.39217276       13.00108856
  594      1      11.06722645       14.75194567        3.12531206
  595      1      20.89828714       20.34845526        3.27713062
  596      1      17.84665430       27.65395727        0.74016617
  597      1      25.37010569       26.80392142        4.66259138
  598      1       0.22086805        4.97291406       17.48618083
  599      1       7.43084230        4.36841634       14.11190584
  600      1       8.89930494        4.42825729       25.07838549
  601      1       7.55295568       14.21343051        3.03961628
  602      1      11.46350884       16.12130736        8.97850999
  603      1      12.04585393        1.88404008       23.65230700
  604      1      17.59506598        4.22002682       25.21054754
  605      1      13.72700893        6.26721595        9.20297196
  606      1       3.56797247       12.23959864       26.52023608
  607      1      17.59056653        1.65360613       12.38169996
  608      1      27.13654239       17.16044444       18.85929637
  609      1      27.62914299       26.65731514       25.07291175
  610      1      16.23848591        6.82599594       15.75378993
  611      1      25.85653922       26.40643366       21.70983974
  612      1       4.48968659       12.71784183       19.42430624
  613      1      19.47187857        9.17621554       16.38310102
  614      1      25.37111243       23.28193183       20.10723277
  615      1      11.52894215       26.54548407        4.79324745
  616      1      18.03308003       10.46519997        9.96751432
  617      1       2.05820001       19.45243016       25.11576988
  618      1      13.67470123       26.15477190       10.17007781
  619      1       9.01277452       20.82498855        7.33702083
  620      1       1.98772865       19.94146690        7.16124046
  621      1      10.71889427       19.85945415       22.19769658
  622      1       6.89041719       22.82645913       16.95859130
  623      1      11.97828734        9.48472880        7.17337182
  624      1       5.78990501        0.92125420       26.67966291
  625      1      16.77886969       15.90923750       13.29080715
  626      1      15.29049090       11.34062868        7.11472306
  627      1      22.65753072        3.91890283        7.79916616
  628      1       5.84232243        4.26000733        9.60074598
  629      1      15.94657181       16.64380209       20.22206623
  630      1      10.63491286       22.02949926       23.40005187
  631      1      16.16602681       17.69130351        2.23097908
  632      1      20.58955019       13.59084452       19.08298980
  633      1      24.45769130        6.36921632        0.70429969
  634      1       0.86185899       14.70479366       16.67958879
  635      1       1.25628928        2.84880302       24.04641661
  636      1      17.86386426       21.98747724       14.90268360
  637      1      16.90933581       26.45430032       26.66916466
  638      1       5.68015387       17.65191767       25.99100015
  639      1       9.07158870        8.83172796        0.13442509
  640      1      23.60129256       22.09613539        1.19150156
  641      1      27.45999693        3.94896806       25.62185504
  642      1      11.02532928        1.21319607        8.91197596
  643      1       9.19062643       15.10620597        4.51813086
  644      1       4.61511472       20.11353183       20.15133882
  645      1       1.38731523        2.70890881       11.15477141
  646      1      14.49987981       27.11980883       21.88257882
  647      1      19.32626385       13.75720942       25.54201049
  648      1      21.32747943       15.79247034       27.46154600
  649      1      12.31482615       15.22398913       24.87871624
  650      1      21.42540122       18.41410747       16.70279150
  651      1      20.07978864        6.56722217       19.07818641
  652      1      26.91732096        9.67001285       11.70428074
  653      1       5.24337010       14.01782910        9.29526270
  654      1      25.29530833       12.04553063       18.17935968
  655      1       8.07308922       20.86654037        3.61983880
  656      1       2.07070287       12.83829439        2.32296368
  657      1      11.96566396       13.03866172        5.95810681
  658      1       6.67606486       16.05044259        1.83469690
  659      1      26.20050718       20.36869049       26.28499174
  660      1       7.86852954       22.66978570       19.07552436
  661      1      16.25659994        7.56268784       26.67169595
  662      1      19.39175293       18.54769993        3.36192591
  663      1       0.94941042       16.25398026        0.75164987
  664      1       1.24273348       25.38789318       14.18732388
  665      1      17.11410927        9.79826374        2.43001567
  666      1      14.94611801       14.52919832       17.56250511
  667      1      12.02207301       12.61996272        3.60779770
  668      1      13.01476904       19.87698560       12.99302399
  669      1      21.08272876        9.08978750       22.04887920
  670      1      20.74311709        4.98409299        8.84208016
  671      1      24.01947950        7.54358613       19.07719208
  672      1       8.58169509       11.75930397        6.82912519
  673      1       7.54695029       13.62343893       15.31012893
  674      1      16.40544855       27.30640232        7.48255011
  675      1       1.56308261       12.82916264       10.25942630
  676      1      25.68949843       11.55514396       10.93315531
  677      1       8.23513673        4.81340761        7.05995834
  678      1      20.46710822        4.79286077       17.57649350
  679      1      10.44642434       18.60369117        0.95761071
  680      1       1.92511830       22.76000657       22.07146610
  681      1       3.39151873        2.46061007       19.76650457
  682      1      12.65513653        8.61803024        5.02110036
  683      1      19.91493877        1.94293575       21.60310719
  684      1      15.32668197       23.83909530        3.77934546
  685      1      23.28409381        9.76315217       15.87078537
  686      1       2.31515247        8.83451801        3.22451336
  687      1      22.46160902       10.19964457        2.60912619
  688      1       4.22584117       12.30860236       24.30548279
  689      1      20.74878310       26.24988057       12.35552086
  690      1       5.28004727        8.59756444       18.88372714
  691      1      16.86671799       15.39994987       18.48660118
  692      1      20.96707985       10.23879811        7.22546698
  693      1      15.63241812        5.29414952       26.20726749
  694      1      18.98245326       17.82564595        5.77283423
  695      1       1.89407998       25.49855331       25.69295510
  696      1      21.43243523        6.50774317        2.17678054
  697      1      25.31543682        7.71961045       26.34077518
  698      1      19.02920881        0.67894976        5.15765900
  699      1      20.99713668       11.81137302        3.67611337
  700      1      23.36335496        8.29388149       21.41633013
  701      1      21.15639694       27.57545263        5.20590587
  702      1      25.05642065        8.75334217        8.74973344
  703      1      10.71010206       23.11020611       21.07178907
  704      1      10.52056216        6.74850044       12.06915600
  705      1      23.12306872       21.52820951       14.95864247
  706      1      19.26710147       15.84349166       22.05000251
  707      1       0.25460561        3.06923153        3.63246823
  708      1      10.77868287       26.76292639       21.40610124
  709      1      14.99221408       19.31629509       14.33463997
  710      1      16.42367743       27.59336310       20.59370217
  711      1      23.36358557        4.40274623       25.55503134
  712      1      14.52004698       17.39478701        0.43825214
  713      1       8.70430449        0.56158596       24.12387985
  714      1       5.45499438       17.70940247       14.60753774
  715      1       2.44451628        6.47472957       19.90720524
  716      1      16.29685618       20.08481693        9.78840743
  717      1      10.16651214       18.98355105        6.30671260
  718      1       1.38514322       27.56028876       13.39332249
  719      1      11.32382024       10.70044876       25.46930998
  720      1      25.49075116       19.58119127       15.95973199
  721      1       1.99191976       20.02344814       18.04196024
  722      1      19.16102315        2.60931922        3.80808687
  723      1       3.71860734       10.09989058       27.35788126
  724      1      24.04728040        4.84608678        4.30954238
  725      1      12.28129028       11.82789393       27.40886866
  726      1      10.08042307       13.36961495       20.26220120
  727      1      23.35541677        8.87840904        4.31608860
  728      1      13.71177257        1.93451758        5.96636352
  729      1      23.43342726        7.30130337        7.92566547
  730      1       0.11938354       16.04874508       24.37196484
  731      1      26.72001558        2.69120939        5.64924342
  732      1       0.40252982       21.21185349       25.13004758
  733      1      26.31285140        4.36873358       19.25247502
  734      1       7.22662470       17.93393944       17.86192366
  735      1       1.49457367       11.56806038        6.04074811
  736      1      19.23254145        2.07688671       14.20261442
  737      1       7.72595077        1.85624401       20.41249070
  738      1      20.96322900       14.35846190        6.48449718
  739      1      12.89602447       11.54497944        7.49514532
  740      1      13.76846722       18.67197905        7.78360736
  741      1      23.18101154       14.55523197        2.89859755
  742      1      19.12188782       11.49756689       15.94650329
  743      1       8.23692334       13.61559776       18.82640155
  744      1      23.12016970        6.71304784       25.14090036
  745      1       7.05215644       21.80296016       24.68006932
  746      1       3.37169290       21.35296809       10.63003859
  747      1       0.96992047        0.49751211       23.52472316
  748      1       6.05751652        8.74642489        2.51734586
  749      1       5.71458132       17.29929984       10.81743348
  750      1      10.00129025       26.23101412        6.53990897
  751      1      18.50272024       19.51006304        9.52264548
  752      1       9.22303134        1.73866474        0.07263303
  753      1      22.65346794        2.58335768       15.73429665
  754      1       3.76584326       20.28140115       23.85356467
  755      1      15.74246842        3.36698982        5.42693205
  756      1       7.13010447       18.85693419        4.42417399
  757      1      23.13097240       17.07402433       27.12703438
  758      1       3.81766170       20.24990051       12.70273191
  759      1      25.58088206        9.99404857       26.93602221
  760      1       8.80810074        8.96060797        9.38476555
  761      1       0.15336889       17.96620221       12.25326297
  762      1       3.16018875       17.18041025       13.98772748
  763      1      10.99712165       19.68907985       14.38678606
  764      1       7.43613468        1.66914122        3.64925443
  765      1       2.62908129       15.06693121        1.98135780
  766      1       3.74446903       17.76703906        4.13475153
  767      1      19.11699808       18.66163948       19.57314354
  768      1      14.59172557       18.11725837       25.88010564
  769      1      18.55528065       23.00777369       20.84801696
  770      1      17.11805614       16.50781348        6.51877472
  771      1      20.68199585        8.85366634       18.40434452
  772      1      24.40408531       13.16632034       16.25510059
  773      1       8.68142819       23.39667812       24.16373894
  774      1      14.03721013        1.91091845       18.61764172
  775      1      20.14599227        2.69217780        1.54677140
  776      1      10.46861593        7.19228679        9.73686105
  777      1      20.61385937        5.53627937       21.12287559
  778      1      15.60865662        2.88769127       12.90861031
  779      1      13.28384819       11.82386023       11.16110403
  780      1      19.44857176        9.08616571        8.74057007
  781      1       7.42365266       26.93091588       16.24785849
  782      1       4.80875666        7.68614090       10.02202552
  783      1      24.52207527       26.78447398        2.53902173
  784      1       3.60825381        6.01411469        0.49695344
  785      1       3.70827674        5.13413252       23.00989253
  786      1      13.60242010       23.59053928       17.64824669
  787      1       7.20299781        6.91407673        6.79031948
  788      1       9.79655592       13.70708052        6.33829626
  789      1       4.95783016        1.94185023       23.27047601
  790      1      27.26558174        2.13334166       20.27793709
  791      1      22.08617884       15.39557732       10.05744848
  792      1      21.52275128       13.50414475        8.67989999
  793      1       6.49943943       12.01028915       23.64419956
  794      1      23.97188948       12.22974061        6.06837375
  795      1       6.13705341       26.19240944       19.22359233
  796      1      27.47456329       25.04166002        2.43375609
  797      1      25.02245690       15.17323597       12.30012120
  798      1      25.71806265       13.62809266       21.94167845
  799      1      15.13899744       25.41146903        2.15396545
  800      1       4.53477729       14.25625569        5.44343965
  801      1      10.11235637        6.22567134       24.04188123
  802      1      10.68467543        7.49093674        4.33545239
  803      1      26.46227035        6.48577364       16.37632785
  804      1      20.06652696       20.86017539       23.67881031
  805      1       9.50143427       22.96390301       12.89896473
  806      1      21.07373087       23.60048810        5.93465679
  807      1       1.79127302        9.27694324       26.48843756
  808      1      10.76248283        3.40969955       17.69933291
  809      1      21.06952542        3.65690674       14.29403716
  810      1      21.00804997       20.09504493       26.95561156
  811      1      27.57561339        6.27433936        4.99550149
  812      1       8.51524449       17.02733629       21.52106080
  813      1      15.88050566        5.96856430        8.21306486
  814      1      16.52973962       11.83534351       26.78565275
  815      1       8.33443591       14.69005368       25.28579379
  816      1       7.59916448       24.68610399       22.53430409
  817      1      26.07152350        8.21126022       24.04174384
  818      1      14.53453752       10.96553147        0.04584266
  819      1      11.67437273        3.03614354       12.15866027
  820      1      10.84674220       12.37471100       14.42240703
  821      1       1.64998165       18.21051492       19.55311438
  822      1      13.77447007       21.02766419        7.65818022
  823      1       0.76550433       11.36423961       19.80936993
  824      1       0.76006577        3.63023097        9.00549114
  825      1      10.29886065       14.71572376        0.91394824
  826      1      27.40568986       23.87115459        8.91909836
  827      1       6.18413683        5.22564972       15.94975235
  828      1       0.88985937        0.86946438        2.98613280
  829      1       5.88282096        5.63093650       22.10245777
  830      1       8.82900152        9.62146206       11.74484041
  831      1      26.66673568       10.95433027        3.49979294
  832      1      19.61447369       11.24844279        5.50094505
  833      1       2.21709426        5.40280873        8.52905521
  834      1      15.52384908        0.01943102       15.22157262
  835      1       4.14547727        0.92754245       21.36876510
  836      1      25.88369448       12.35666045        1.77720939
  837      1       8.38167522       24.62658339        5.70101400
  838      1       2.66546508        4.43894371       21.01657180
  839      1       8.04594985       24.60664689       15.90753587
  840      1      22.03337032       26.70425157       19.79784413
  841      1      22.22618702       23.17805306       21.46056846
  842      1      10.29943007       15.35440107       21.62659376
  843      1       5.24140205       18.81365918        0.41624145
  844      1      12.27538704       10.17910875       20.46255858
  845      1      24.96883943       15.69120136       26.61212087
  846      1      13.28813763       24.81309646       24.94301555
  847      1       2.23880637        0.52559437       11.19195402
  848      1      24.33157521       15.50538520       22.73155726
  849      1       5.90629038       23.22883026       12.79510140
  850      1      19.14208006        7.95724390       12.45958544
  851      1      17.50220721       21.46088882        1.81014702
  852      1      15.67460863        2.41523958       15.21796014
  853      1      16.73356225       10.68425002       24.64964982
  854      1      15.32662364       13.21045579        5.57302733
  855      1      11.68581998        2.34574073       19.61358069
  856      1      11.41688157       22.56726398       17.29098552
  857      1       1.91882628        8.47319818       14.13533854
  858      1      23.21654197        0.74604598       22.85888561
  859      1       6.86636605       21.05807908       15.42742414
  860      1       9.02841521        4.32982885        4.98604671
  861      1      10.46742402       24.38050447       15.96362324
  862      1       3.34923047        5.24130362        6.36054511
  863      1      14.27468493        1.50003359       23.20864618
  864      1      20.17481178       10.25993220       20.25404856
  865      1      18.52166946       12.40812018       13.77048289
  866      1      27.26153132       26.35456300       17.90244574
  867      1       6.79427094        8.18607182        0.32890647
  868      1      11.05927173        5.26016437        4.48761593
  869      1      22.74921765        0.28427408       27.22037460
  870      1      23.40165014       16.96315228       17.37656352
  871      1      21.04094452        4.69324113        0.58895343
  872      1       5.26240110        8.60300481       12.11446257
  873      1      24.99977985       10.02564154       21.25434097
  874      1      13.86859285       16.37725177       16.62276800
  875      1       3.41901427       17.02055885       10.20557708
  876      1       4.39445655       15.24096311       16.74552243
  877      1      21.84935296       13.85098663        1.01716606
  878      1       2.99767854        0.86050815       14.81827293
  879      1       3.13231679        6.59767526        2.82128938
  880      1      26.13572305       27.64596341        9.26665594
  881      1       6.77549092       11.30985641       15.98352294
  882      1      15.10196085       18.44638942        4.21515718
  883      1      22.92438317        9.30955827       18.11416006
  884      1      13.80467924        5.82073108        1.93538238
  885      1       5.27444796       26.31162562       10.81974484
  886      1       2.70029491        7.02924798       24.12022799
  887      1       0.39348616       27.64666613        7.87697584
  888      1       1.96811226       24.54256203        9.14331254
  889      1      18.81436599       17.23790579        9.79176976
  890      1      22.45492201       16.73156703        3.06431538
  891      1       1.52383229       15.53796159       26.29009784
  892      1      12.25222888       16.60273165       21.02436284
  893      1      13.66217403       21.87769146       11.76296058
  894      1      25.89311850       25.73949492        0.61605038
  895      1      12.17842232       27.19358864       27.41118973
  896      1       2.86244853       13.81916087        8.66493076
  897      1      19.55441280       26.05460937       14.54182766
  898      1       2.98147288        8.84410461        9.06783379
  899      1      22.81035404        4.32032168       21.36590389
  900      1      25.24746523       26.60068681       13.32007060
  901      1      17.55303724        7.22222820       22.94654461
  902      1      20.80936426       23.91236886       11.80395169
  903      1      17.16205901       25.90486334       14.41464758
  904      1      26.75048679        5.84120858        1.15319494
  905      1      17.73688677       14.38356354       14.77014008
  906      1      14.25047440        8.76346206       27.01695278
  907      1      17.13261231       26.89071017       18.35466381
  908      1      23.95407919       27.58125792       20.79092163
  909      1       0.64217474        2.80276664       16.74037027
  910      1      11.31943836       26.48878943       16.64074923
  911      1       9.61250141       26.09513793        2.09333850
  912      1      26.77398928        7.83359665       10.15252824
  913      1       6.04592033        2.49713339       10.93843015
  914      1      20.39289604        7.81728146       14.63426971
  915      1      22.07947858       26.43968662       23.58140714
  916      1       6.76325802       11.32422961        5.38902634
  917      1      24.57591110       22.19474436        3.36207239
  918      1      22.20101623       20.22422123        1.32393495
  919      1      26.50870533       10.08738323       17.34161048
  920      1       5.37610800        7.35198971       15.49750405
  921      1      11.31041778       12.09348658       23.54772759
  922      1       8.91131682       20.90209788       13.97017933
  923      1      13.57683738        5.23284406       22.61500955
  924      1      17.55550585        8.51476472       24.95515683
  925      1      17.27993828       24.52779115        5.17120966
  926      1      26.12847428       15.00985251        8.68962362
  927      1       5.73828239       18.81454948       12.57609993
  928      1      11.70022808       27.64005554       14.47309758
  929      1      16.47247423       12.02136082        9.05721910
  930      1      13.66105560        1.26945428       26.74282296
  931      1      17.60303376       19.21253280       17.75868387
  932      1      19.64062189        1.16053813        9.31349773
  933      1       3.51138777       13.08758289       17.27490153
  934      1      20.03156833        4.40639192        5.03509638
  935      1       2.24831605       26.90883919        9.08745283
  936      1      20.96405091       15.74853224       20.14472157
  937      1      15.45582281        7.24255427        3.09051621
  938      1      14.88949741       10.63673283        2.31922048
  939      1      22.40230417       11.96346235       12.95224158
  940      1      14.68561980       11.80300295       14.41092232
  941      1       8.15368863       22.20559646        5.57847985
  942      1      15.70175793       17.17520529       15.14916311
  943      1       5.72030218       21.98774563        5.76149977
  944      1      12.63741460        7.78645926       19.97344743
  945      1      12.24179040        2.13981016        2.35265603
  946      1      26.11179610        4.25785357        9.44921686
  947      1      15.45402187        0.52252565       25.32080524
  948      1      12.49726753        8.26977715        9.17524812
  949      1      15.43335291       22.30472869       18.77851428
  950      1      21.40699323        3.21296787       24.92965585
  951      1      25.24886950       20.73255213        8.54259911
  952      1      10.38671796       21.66025415        9.21587855
  953      1       8.68046429        9.48529379       21.83245005
  954      1      18.02153706        7.48324098        7.46277086
  955      1       9.98218598        2.74419778       10.33932669
  956      1      23.68426761        8.02799281       12.73916913
  957      1      21.04566687       15.19592469       25.18472519
  958      1      13.46287965       21.70840239       27.04107471
  959      1      13.60750037       24.45465677        8.58454829
  960      1      15.17426266       15.95952591        9.73464069
  961      1       9.65625801       13.39673100        9.93473116
  962      1      21.04207030       17.13780492        8.94579461
  963      1      26.95082925        2.39810777       12.21547377
  964      1       6.10827478       27.12570734        6.81913994
  965      1       8.63087728       14.68563754       11.73167769
  966      1       8.01105493       20.87930959       26.58504003
  967      1       7.38822687        8.91167861       15.45434502
  968      1      18.32469206       11.30055060        0.77895846
  969      1       4.51940422        7.48108339       20.76212891
  970      1      11.74653669       13.19614073       18.54269789
  971      1      26.29821185       21.22621524       19.48056038
  972      1       0.35393358        8.07520168        6.50672053
  973      1      18.32530521       11.68781976       23.11257649
  974      1       4.62797819       22.94759983       17.65068149
  975      1      11.23460885       10.03816513       14.66341549
  976      1      25.11906587        1.46135203       24.06044798
  977      1      19.76233431       22.41471252       13.40746241
  978      1      25.91151921       12.31451114       14.71613902
  979      1      17.17865134       27.26038961       11.17580990
  980      1       0.95068455        0.65714608        0.60021871
  981      1      14.16181390       11.58988667       20.74165838
  982      1      23.23153580       25.91315888        7.70873859
  983      1      15.18443020        3.46335649       22.26440533
  984      1      24.22905168       13.50964175       25.83681795
  985      1      12.80023513       17.37250953       18.68801197
  986      1      25.83700684        4.84764412        5.77755966
  987      1      14.85404362        5.76317568       17.37199925
  988      1      11.55589489       19.83648253        4.61149101
  989      1       3.56537970        3.26686580        2.90169646
  990      1       8.61038325       17.31928290        5.53382240
  991      1      25.80686707       13.61985883        6.54915753
  992      1       3.95220093       23.66701872       23.14940883
  993      1      17.58020821       16.96392725       16.76502158
  994      1      13.29841752       25.52058980        6.26396100
  995      1      22.36244678       13.36336435        4.77470743
  996      1      24.49769874       18.55305761       13.87593187
  997      1      19.22387903       25.24622397       20.87823822
  998      1      12.25172903        5.32012887       12.54747746
  999      1      14.32047633        2.17335911        1.08200450
 1000      1      18.06433236        9.64710376        4.70433538
