run_id:  1015  total_energy:   -3027.1547122339957

  1000 atoms
  1 atom types
  0.0   27.664  xlo xhi
  0.0   27.664  ylo yhi
  0.0   27.664  zlo zhi

 Atoms

    1      1       0.03700227       18.75971685        6.78537333
    2      1      14.69790921       18.59212926       19.57389681
    3      1      19.86420237       15.22435673       15.84662318
    4      1      17.43429803        8.36213647       17.15804591
    5      1      12.82669682       12.81315521       13.20851135
    6      1       8.84759287       16.68034996        0.71329992
    7      1      13.86866329       23.98730182       26.99583828
    8      1      24.72061404       22.86501381       12.53888440
    9      1       0.67689471       26.03330209        6.15202704
   10      1      26.76141959       27.54398394       27.10007435
   11      1      26.25219247       24.02817191       26.52744215
   12      1      24.71492939       12.79601914       12.54998128
   13      1      11.74115340       16.38301835       11.37318208
   14      1       8.78742992        2.85745439       23.41885980
   15      1      22.31726754       12.24324644       22.81177953
   16      1      16.01242019       21.59432308        8.01196728
   17      1      22.73845155       17.44351163        5.21116292
   18      1       5.66478842        9.41793720       26.33243531
   19      1      24.99394842       10.34295034        5.00050332
   20      1       8.66965259       12.96303965        1.28109651
   21      1      25.64989653       18.10706239        1.78480958
   22      1       2.96747982       23.65867059        7.25562787
   23      1       4.99663211        2.32899728       18.02665352
   24      1      10.41241075       14.38410766       23.82684784
   25      1       0.44119490       14.93380989       19.20621633
   26      1      27.44205533        9.47304455       21.26016955
   27      1      12.90363447       18.18445169        3.62202675
   28      1      22.35623544       19.11559665        9.30355569
   29      1      17.70296104        3.24168653       15.56645505
   30      1      27.31926508       22.38299958        5.62477639
   31      1       4.81756884       21.77767266       14.29590630
   32      1      16.67932922       18.84134136       22.82037083
   33      1      16.94238683        2.93893175        3.35195253
   34      1       9.65929972       16.72209843       12.31560368
   35      1       8.22839874        6.09899143       12.54707381
   36      1      15.75078082       27.19227295        3.60641935
   37      1      10.65798775        6.60591704       20.11949590
   38      1       7.06923606       26.99751948       23.07285796
   39      1      21.84197872        2.82362834       18.13745290
   40      1      10.73266246        0.54057587        1.31936410
   41      1      10.81907372        7.15919189       27.66098939
   42      1      10.57604361       25.34862841        8.69690785
   43      1       4.33962956        0.76343675       11.54797780
   44      1       8.88163257       18.80875839       23.05730914
   45      1       1.39351108       13.19016578       26.41767677
   46      1      23.80397962       11.05258713       19.45670553
   47      1      14.37418272        7.67892193       14.47165477
   48      1       6.63802318        5.02046279       25.72767191
   49      1      14.98071626       20.38342216       25.90695410
   50      1       9.76108198        4.83559732        8.98980197
   51      1       1.41485656       18.52278269        1.05910483
   52      1       7.38199488        2.42098840        1.32324004
   53      1      24.48098541       19.92986582       22.68092862
   54      1       0.20418898       21.44204161       13.50901471
   55      1       6.83333648       21.94398553       11.09682477
   56      1       4.63639428       24.57517253       19.61932548
   57      1       1.90554687       18.83600147        3.35447833
   58      1       5.74231726       11.74910494        9.31646232
   59      1      27.17800497       11.76371225        7.31062679
   60      1      23.35109403        4.43503771        0.20506714
   61      1       2.39033153        3.08268814       15.36466909
   62      1      18.77984217        0.73560142       23.31532471
   63      1       8.10613610       11.68088038        9.24242977
   64      1       5.41494812       27.59840875       17.42513731
   65      1      20.43911118       21.77100425       21.55834003
   66      1       7.08925147        5.14125182        3.64418644
   67      1      15.98120270       13.21786304       15.92580192
   68      1      24.46146533        7.25989110       23.55804647
   69      1       0.21569108       12.29902088       24.62612121
   70      1       7.18119452        3.00349177       18.47701836
   71      1      10.44587128       17.37050373       14.56404093
   72      1      13.76166968        9.72808662       17.33874536
   73      1      13.30117428       21.10073096        1.55474701
   74      1      24.64220293        3.55162958       15.53890577
   75      1      26.31408215        1.83214888       15.97721753
   76      1       2.57952068       10.67758808       10.67532637
   77      1       2.54934595       23.56715379       11.25163526
   78      1       7.65466456       19.99769644       12.18480828
   79      1       3.83642865       16.84494775        7.83380395
   80      1      23.71615579       26.54105482       16.70264341
   81      1       6.98150841        7.54142917        9.04235417
   82      1      18.81329739        4.02143506       21.36527391
   83      1      11.03028412       18.99423635       26.21010494
   84      1      14.76094278       27.40127728        5.82344343
   85      1       0.79266859       22.13007941       18.72059640
   86      1       5.67894678       17.99377742        2.77364079
   87      1      26.76313203       25.17507063       19.97986329
   88      1       9.54347400       14.99811365        8.23861502
   89      1      25.28826606        3.81923270       24.49831315
   90      1      24.29220921        5.94096273       16.07088012
   91      1      11.78004519        4.50709766        2.44132891
   92      1      25.68075801        8.48454265       13.24631130
   93      1      19.96259658        0.42877296       15.66539181
   94      1      16.13311802       10.27150417       20.32751374
   95      1      22.83411561       14.23648097       24.05208076
   96      1      17.72888890       20.82436610       23.70405062
   97      1      10.04973007       19.77205300       19.73238744
   98      1      12.97759303        9.46855536       11.20890056
   99      1      25.69099197        9.96957329       15.15890217
  100      1      27.55362369        6.25117122       26.31299761
  101      1      22.72420551       11.64614464        7.95097678
  102      1      15.02675961       26.04375058       23.99843015
  103      1       9.03057083       14.63049599       16.81278653
  104      1      18.94411061       22.90651712        5.02495468
  105      1      17.90820505       26.51139872        4.10647840
  106      1       2.93369511       25.46632879        5.83079965
  107      1       9.69792130       10.01807393       18.12277648
  108      1      11.21616537        5.37072255       22.13268880
  109      1      23.79509845        1.42249745        2.55350925
  110      1      16.04845231       24.52489281        0.00023768
  111      1      13.88103093       13.63698726       19.46020104
  112      1       1.77035516       15.70400495        7.50865490
  113      1      11.10732952        6.92984456       16.51675433
  114      1      12.87837924        7.76025815        0.96885434
  115      1      23.74484061       24.43494062        9.49654046
  116      1      17.17812827       14.60557302        5.18884096
  117      1      19.84742281        4.90309479       25.92959558
  118      1       8.65509198        2.39066470       14.73484752
  119      1      18.94120628       19.01492505       12.98195099
  120      1       8.89442651        2.13646024       17.07377853
  121      1      12.56026865        5.89832998       14.81040675
  122      1      18.13445047       15.16556770       27.05286554
  123      1      26.95762302       14.28377139        4.57754105
  124      1       5.93155993       19.15472228       16.38256436
  125      1      14.49821988        6.81491500       21.03581266
  126      1       2.67061637       12.34143012       20.96002323
  127      1      19.62806280        6.31664595        3.69670162
  128      1      11.16303070       13.89941540       16.23025117
  129      1      20.92405404       16.69812631        6.54769900
  130      1      14.94462864       22.21941990       20.95089662
  131      1       5.06633548       11.02970038        7.09024766
  132      1      14.89946479       17.22530765        6.20446469
  133      1      25.04887730       25.08156974       15.39440895
  134      1      16.86090028       22.75030072       22.47556604
  135      1       5.20716276       23.20216674        7.68901660
  136      1       6.06646092       20.99805234        0.33965313
  137      1       9.51000067        2.01648895        4.99638662
  138      1       3.03368670       19.43137054       27.27540937
  139      1       6.20915327       15.00252881       11.23715753
  140      1      12.99714712       15.83448850        3.83455159
  141      1       9.60829908       24.49375731       26.13179116
  142      1      26.65441557        0.68480494       13.90008619
  143      1       9.17971049        9.70988668       25.61395675
  144      1       3.89283715        9.03736592        6.86802548
  145      1      16.95884159       23.49496151       11.03635315
  146      1      21.61736362        8.62283606        0.98867710
  147      1       1.84487174       21.88012312        5.99850888
  148      1      11.41367918       26.90570498       10.27636739
  149      1      13.74086709        1.85231503       11.99480749
  150      1       7.34212678        1.18938684        7.93401728
  151      1       0.42529220       12.18339145        0.59539169
  152      1       0.11858737        9.17944862        2.38530213
  153      1      15.44362085       20.62950004        4.75353930
  154      1       7.80577867       25.62577266        3.67450608
  155      1      14.08623463       14.40216970       23.36776435
  156      1      24.73864961       17.62449091       19.27643550
  157      1       2.11251347       24.88555722        1.71792290
  158      1       8.73023018        8.29954215        5.44300820
  159      1       1.17733629       14.13313159       12.29486511
  160      1       2.13993199        6.92101577       26.40265248
  161      1       4.61933888       20.67553553       18.01295003
  162      1       5.59138126       16.21612863       18.41645974
  163      1       5.00169228        1.16566797       13.82462886
  164      1       0.63018474        6.34157074       14.34459627
  165      1      13.33359883       14.86646851        8.55083867
  166      1      19.42182352       23.58606848       26.71171599
  167      1       5.80137817       15.18979727       14.85413115
  168      1      11.07045267       18.63091561       17.90300195
  169      1      14.65435083       18.27925784        9.84826905
  170      1      26.62887707        7.27626082        2.97995201
  171      1      11.51324917       24.50716441        2.77976779
  172      1      20.63496629       15.35551552       12.05174777
  173      1       7.31894903       17.96428740        9.31651692
  174      1       1.77536441       14.46583551       21.34964032
  175      1      16.32904662        9.18999107        6.27513001
  176      1       2.25664977       21.13260253        3.73045599
  177      1      18.10037170       13.57926922        8.51951718
  178      1      25.69275250       23.30337737       22.61838130
  179      1      11.50030863       18.24404531        8.05462665
  180      1      25.57011748       18.07949677        4.06665602
  181      1       8.28349771       25.27935886       19.03468459
  182      1      22.64711512       20.98992323       18.75180581
  183      1      15.39410213       21.76057807        2.75824762
  184      1      21.14306119       26.87995413        2.92784083
  185      1      24.95307984        1.50434079       19.46388449
  186      1      21.88123542        8.37135457        6.07436564
  187      1       0.83970035       23.34282588       26.25586026
  188      1      12.55602167       18.45095217       22.51877270
  189      1      17.44681277       22.59434103       27.40480065
  190      1      14.91433537        5.53693499        6.08700783
  191      1      14.18282772       25.60042158       12.39482881
  192      1      10.82021546        3.10800181       22.02053463
  193      1      25.73342150       25.26013119       24.07824374
  194      1      21.80751596        0.98077270        1.59287893
  195      1      10.27686906        3.56197503       26.75152877
  196      1      18.03518735       24.72837657       17.53059814
  197      1      21.33898017       20.60011242       16.94223676
  198      1      16.44344668       25.41642710       12.35430291
  199      1       3.37118087       26.92297973       16.48712649
  200      1       1.19755872       18.08532545       10.26052321
  201      1       4.01145197       15.97201841       26.19987605
  202      1      16.05939901        5.83238228       19.39789530
  203      1      21.96564012       20.53074188       11.23204182
  204      1       3.77037762       24.85540397        3.50738056
  205      1      18.33614430        5.69306944       12.34913772
  206      1       9.16193449       10.60719807        1.87739621
  207      1      26.81334617        5.54158462       21.33695949
  208      1      26.40156312        7.96315871       18.30300685
  209      1      24.95299311        4.05278662       13.31429258
  210      1      12.94700403        9.00365726       25.09229990
  211      1       4.73550494        9.30041100       22.38515703
  212      1      24.79361807       22.19489737       26.75224126
  213      1       0.19070736       17.87653074        4.70371487
  214      1      23.17906360       16.69557616       20.95765856
  215      1      13.18374368       25.93143271       18.14051224
  216      1      14.15869270       15.29816872       21.15075603
  217      1      26.27578517       15.98776523        0.98050462
  218      1       4.88565190        3.21200391       26.45727382
  219      1       3.79711501       18.63238551        6.38043991
  220      1      20.49876187       10.73657473       23.76104345
  221      1       9.91035482       22.36348259       27.24391539
  222      1      11.38467393       26.01971627       25.49053466
  223      1       1.09487863       12.21558106       13.72831413
  224      1       9.78272296        8.87014081       16.09659142
  225      1      17.27213173        3.81478408       19.59553680
  226      1      16.55121977       11.42135870       12.88886995
  227      1      25.54797832       14.41898426        2.58630599
  228      1       6.16644754        5.99575748        0.14625976
  229      1      13.66641008       12.08799479       22.96961416
  230      1      26.67624484       20.17732401       21.61576091
  231      1       7.60706846        5.62310534       10.27483750
  232      1      22.45264813       19.82398270       13.51925272
  233      1       4.42064088       12.19514822        2.35092326
  234      1       0.93103950       18.77182073       21.49752133
  235      1      21.39968519       16.10039728       14.09307538
  236      1       1.77187032       27.07411695       18.28286252
  237      1      17.04762060       24.93138411       23.61112963
  238      1      20.06275128       24.02069043        1.28767974
  239      1      14.22071567        6.09870265       11.43968767
  240      1      22.22605722       25.18856119       17.98266855
  241      1      14.68011543        9.98682365       23.66117391
  242      1      19.51277854        7.84770521        5.36693655
  243      1       5.43647631       18.72731353       23.65250263
  244      1      24.86196130        2.75912748        0.88130768
  245      1      12.14674929       12.83815191        9.40491164
  246      1       6.86047520       24.97799437        7.52676133
  247      1      18.99969692        5.05754087        7.10624297
  248      1      12.16845770        3.67487870       15.83533831
  249      1      22.43975088        9.88699420       11.51447873
  250      1       1.60993341       18.68600829       16.59653885
  251      1      16.07728497       14.17450885       26.57483087
  252      1       3.02471902        1.15760498        3.78946875
  253      1       5.20403772       13.13906872        0.27993369
  254      1       5.58662296       23.71532808       21.62880308
  255      1      11.84623460        6.86228955       25.47648473
  256      1       0.99846706       15.76892118        5.23791439
  257      1      24.49305086        0.24281053        7.68664570
  258      1      24.63129735        5.20167871        7.66066070
  259      1      15.46449052       27.57359750        9.59214977
  260      1      23.39357257       18.16386181        1.42854822
  261      1      21.16381530       19.95900048       20.30772277
  262      1      25.55274191       16.71811140       24.54512520
  263      1      24.91137905        1.26070689       26.64198108
  264      1      19.94492658       16.89394456       24.07125297
  265      1      12.81374818       18.73329489        1.43259630
  266      1      17.48791915       21.21909399        6.12019767
  267      1       7.40529897       26.67613341       10.77090520
  268      1       9.34289929       25.02958786       21.10182464
  269      1       6.90740984       19.95935269        8.25186046
  270      1       5.38776814       21.52531214        9.37152915
  271      1      16.41748222        3.66101930        9.46254154
  272      1       4.82466957       10.94073390       11.65394316
  273      1      21.83774154       12.02405207       20.38522704
  274      1      15.97948877       21.48556675       11.67971666
  275      1       0.04011151        9.86720153        0.12400933
  276      1      22.26673227        3.84689711        5.31810631
  277      1      17.90767870        7.25612911       19.14354764
  278      1       4.89860666       17.14494042       21.93372506
  279      1       8.86631108       22.96322969       10.55673746
  280      1      20.24087176       24.76756988       16.42018320
  281      1       9.64062186        9.64908232        7.11820523
  282      1      26.75503869        0.85923830       22.36941019
  283      1       2.02709315        5.00517341        4.26839557
  284      1      20.90544775        1.14833076       26.02612070
  285      1       2.65965556        5.85608904       17.71214921
  286      1      22.77487250        7.72376702       14.84303841
  287      1      15.50604279       12.61723984       11.12995443
  288      1       4.39826680       14.71424135       24.26527767
  289      1       1.47306600       10.31351059       24.34481731
  290      1      21.41436802       25.38627608       21.62669192
  291      1      10.41285441       11.24117052       21.54872547
  292      1       4.12586933        4.10744461       16.67600624
  293      1       2.63787341       20.66138143       21.58403035
  294      1      23.45135472       25.70479822       27.17879830
  295      1      20.67955399        1.05428138       19.45508850
  296      1       0.11857069       14.08949944       23.04559356
  297      1      17.87213105       17.56668850       21.23477092
  298      1      14.28407009       15.04701594        0.23543388
  299      1       0.57296880        8.45900743       23.36971216
  300      1       4.79523739       27.09094264        0.61055255
  301      1      19.44456371       25.41854312        8.40910613
  302      1      14.65620952       14.67982265        2.48582210
  303      1       7.26529147       11.07543307       25.66081866
  304      1      17.24408944        4.36466592        1.55346185
  305      1      19.97936096        7.19115642       22.59971593
  306      1      16.79967706       23.88048420       15.61455554
  307      1       4.11448539        9.94824701        2.04738249
  308      1       1.53228889       20.31237652        9.52784957
  309      1       9.46322931        0.84212228        7.08709124
  310      1      25.04324582        1.08151646        5.65344248
  311      1      20.16560039       16.93968779       18.18937585
  312      1       0.97459297        3.00978910       27.63337402
  313      1       3.14949122       10.98621851       22.83878379
  314      1      23.75164364       22.17455276       23.01098662
  315      1       1.37931301        1.66204290       18.84682839
  316      1      14.87380485       27.50041499       17.58163500
  317      1      13.22848941       21.43231750        5.43883654
  318      1      25.65859495       18.97389431       12.00379497
  319      1      24.64302719       18.46870753        9.83215967
  320      1       4.19559901       24.79997063       12.40895223
  321      1       7.74221051       24.36515526       13.62976922
  322      1      12.52399133       17.66337936       24.82228710
  323      1       2.06233707        9.38170254        5.49850388
  324      1      20.29927056       13.02630545       12.24971436
  325      1       9.92198258        0.74745138       19.95511150
  326      1      23.99004921       22.65952805        7.98685651
  327      1       8.28294614       26.49274407       12.84258925
  328      1      23.36477757        6.10904025       11.34496655
  329      1      14.82166278        7.69932711        5.21737922
  330      1      21.71731909       22.37868000        7.59150794
  331      1      23.79342998       16.26675734       13.95485271
  332      1       3.80762091        5.19207916       12.61375002
  333      1      22.55649298       18.77692677       21.82327624
  334      1       0.68103145        3.81408840       21.94575888
  335      1      10.99286577        2.25457480       14.26925284
  336      1      26.24559146       21.19652131       11.87279048
  337      1      19.63105809       20.44915867       11.19351379
  338      1      24.85375760        5.21200570       22.63382480
  339      1      20.04003655        4.37016996       11.10248816
  340      1      19.07096137       19.72499608        7.11084736
  341      1       8.74255523       13.05572078       13.39621187
  342      1      11.45503886       11.06462680        1.92604520
  343      1      18.72053853       19.17776195       27.05065655
  344      1      27.02991632       15.76054551       15.49366397
  345      1       3.51468931       25.89474884       24.02793952
  346      1      10.11963751       22.00893230       19.15030963
  347      1      24.10194357       10.95458130        0.83645445
  348      1      13.48287206        5.14331138       25.08190354
  349      1      26.28437488        6.14339283       13.11350024
  350      1      26.23490673        9.63543894        6.81809319
  351      1      18.22147080        1.10519188        7.27565386
  352      1      26.85201727       22.91864572        3.33943250
  353      1       8.11588226        0.31320879       26.42822245
  354      1      12.93656697        2.30787566        8.26991069
  355      1      19.75714074        9.00376547       25.44365924
  356      1      16.10826704       14.91643580       24.32375161
  357      1      19.73878699       12.46624502        9.99782968
  358      1      18.22700019       13.28009168       19.14619590
  359      1      22.62361491       18.81360693       25.63339024
  360      1      25.84953615       25.30566916       10.02072377
  361      1      15.11780416        4.39123340        0.65749497
  362      1      12.38034640        3.05478863       25.70856103
  363      1      10.15892856       20.40771081        2.74542423
  364      1      26.09884483       24.74309387       12.19008588
  365      1      16.17772507        1.15080601        2.09408795
  366      1      18.96238347        0.77779744       17.84564769
  367      1       6.64045709        6.76963523       24.04398992
  368      1       6.65095996       15.66868966       21.69071423
  369      1       8.39695303       25.89304556       27.57994809
  370      1      15.56468807       20.08742184       18.01870321
  371      1      10.85832585       27.51499875       23.71089005
  372      1      26.95662139        3.75172513        1.47138160
  373      1      23.16703235        5.86634634       18.15610541
  374      1      14.37187776       12.62008625        3.46019556
  375      1      16.82361914       15.47939142        2.96265829
  376      1       6.24275011       14.42022884       19.72788030
  377      1      26.14132264       20.49527400        6.45646585
  378      1       9.06849338        8.37435507       19.79043559
  379      1       4.04298384        7.37183747       13.57740657
  380      1      27.03027817       12.80571324        9.46196740
  381      1      24.74782929       19.93518274       18.42545082
  382      1      12.71783484       22.31842849        9.45316851
  383      1      13.02694189       23.70080658       21.29843386
  384      1      23.85967415       10.52548791        9.69569294
  385      1      18.15270815       11.38116068       20.74654654
  386      1      14.30469971       20.61442347       16.08711472
  387      1       5.81639693       19.70887209        6.22906540
  388      1      27.07644557       19.76897621        0.83603584
  389      1       4.36608487       17.75246111       19.78170621
  390      1       1.22306516       10.90896989       17.59407673
  391      1      11.11114687       22.29294744        1.73476601
  392      1       1.57631567       17.61345986       23.47120888
  393      1       3.77185827       27.27427896        7.16574837
  394      1      26.49467487       21.51179790       15.44023839
  395      1       7.33226706        0.46030076       14.27135899
  396      1       4.55601339       27.18398152        3.06287597
  397      1       5.50634983        3.52642969       13.12645447
  398      1       5.60339645       15.33922297        7.35457710
  399      1       6.32173586        0.09806664       20.93980223
  400      1      27.13503724       17.79847793       16.72071151
  401      1       8.94998224       18.50388119       10.92344764
  402      1       7.83451651        1.30316152       10.24405774
  403      1       1.79637889        4.35070866       13.41883127
  404      1       5.68871077        3.33225957        4.08803482
  405      1       7.42420788        8.27681654       12.99912109
  406      1       1.04878598        7.51601347        8.58458597
  407      1       2.71441206        9.62768404       16.11789353
  408      1      25.22159685        2.00392533       10.46414198
  409      1      19.25715247       26.71289354       10.43257532
  410      1      18.47244600        2.72259460       10.55129840
  411      1       7.59210320        5.39583069       17.91616422
  412      1      18.31741526       17.21782076       25.80675111
  413      1      11.87443672       10.88338624       18.32103934
  414      1       6.17083722       25.20117580        0.24358366
  415      1      14.48325924       21.27792332       23.84442542
  416      1       2.99517867       15.61215590       12.32312391
  417      1      12.20853321       14.25343035       27.10755409
  418      1      21.83661535        1.01059219        9.91118799
  419      1      22.82981802       27.42724305       13.11714510
  420      1      10.64118364       26.45527683       12.66905253
  421      1       6.62625782       10.55260108       21.77212915
  422      1       0.62465268       12.46359313        4.09230728
  423      1       7.75452553        9.79454318        3.81660437
  424      1      20.27209869       23.40583282        9.16120659
  425      1      20.65329272        8.46391111       10.61289076
  426      1      22.40171904       24.12645338        0.97728282
  427      1      17.24932436       20.75919033       26.00530209
  428      1      12.73384049       18.52054723       11.19655120
  429      1       3.33887552       25.10160558       14.80480704
  430      1       5.86169576       13.01516343        4.05285148
  431      1       7.43209097       13.03945793       26.96201966
  432      1      24.50938356       22.77965751       14.87384544
  433      1      22.68910434       22.92411709       11.28794633
  434      1       3.56144722        3.34794861       24.44340193
  435      1       0.71656205       22.78220417       16.50115117
  436      1      21.15618014       25.82123479        6.72866209
  437      1       8.35056465       24.99472086        9.41731750
  438      1      15.99524467       23.77526754        8.82059927
  439      1      12.97724420       25.38924631        1.12972658
  440      1      20.79840466       13.11013211       16.63392013
  441      1       3.87223850        7.92075510       17.15872602
  442      1      17.29481480       25.14951821        7.45803390
  443      1      17.28970171       15.78882687        8.68965039
  444      1      10.11573753        5.09100958        0.86114265
  445      1      15.23842087       14.92783729       11.81865230
  446      1      11.02095696        9.09169272       12.53160032
  447      1       4.37498133       22.30471227        3.82824686
  448      1       4.93157561        7.04638106        6.04207813
  449      1      24.87750252       19.00801804       24.80986214
  450      1       6.47104571       27.36706436        4.40293141
  451      1       9.41458422       27.40779103       17.75063017
  452      1      27.62293426       26.68812239        4.05156658
  453      1      19.61762712        9.33427413        0.04177533
  454      1       1.96214974       22.86900424        0.55381575
  455      1       5.93719588       10.83238338       19.50281424
  456      1       0.58823462       21.63049855        2.02816080
  457      1      17.34283165       11.96831387       17.30078864
  458      1      11.16629142       24.32418618       13.70151661
  459      1       4.65964326       15.26594878        0.69450241
  460      1      22.26471099        3.98795569       12.30337909
  461      1      20.14963279        5.55524852       15.40635105
  462      1      19.79692140       12.88406606        1.83164650
  463      1       4.28133788       11.44228080       15.69095121
  464      1       5.27741945       27.56139559       24.53131755
  465      1      13.09034264       15.10869884       12.90126231
  466      1      23.11497232       22.77391218       25.14470078
  467      1      17.08816421        9.28815896       11.93555264
  468      1      24.62452508       20.20406628        4.68866011
  469      1      21.83927531        2.66373691       22.71071566
  470      1       7.73286313       16.41385330        7.60602792
  471      1       5.35566959        6.88327267        3.72587703
  472      1      25.64225687       11.69159482       25.07047750
  473      1      22.92221598        1.66271147        4.80654407
  474      1      22.62097397       12.00829034       15.37225111
  475      1      27.49274739       21.89368401       23.01481076
  476      1      11.44155016       21.27868486       25.87951939
  477      1      15.70588252        2.28543302       20.26835128
  478      1       7.72272227       11.41672947       18.10459815
  479      1      22.79652747       12.32600281       27.19702825
  480      1      11.83860540        1.28962434        4.54217897
  481      1      12.20364745        4.60105187        8.36500148
  482      1      22.35370694       19.74702502        5.14154251
  483      1      14.54940731       23.01403826       15.51194028
  484      1       6.73158031       14.44636629       23.63397622
  485      1      17.88271791       19.16006485        1.62683098
  486      1      18.69084610       14.98179780        1.69313930
  487      1      24.70368869       24.97771737        5.96946396
  488      1      19.44077737       22.25237262        2.84865546
  489      1      16.15008211        4.84816115       11.66283294
  490      1       9.41513770       17.05996498       16.75494239
  491      1      12.22818585       15.76894445       15.09644557
  492      1      11.93383341       20.35377760       16.44012189
  493      1      27.21348241       15.75040466       13.05123675
  494      1       3.23651923       23.00408697       15.80092270
  495      1      19.10930626       26.12353614        2.11216695
  496      1      17.87660570       22.72798070       18.67040431
  497      1       0.04230385       16.94560266        8.48261722
  498      1      23.48148086       25.11504375       24.94014215
  499      1      20.15939516       27.12742764       24.65655887
  500      1      24.74536297       15.41696704       15.88362114
  501      1      18.86192744       13.36508601        6.28307052
  502      1       6.38180682       21.99095249        2.40007063
  503      1      18.16292755       14.04974437       23.43426008
  504      1       1.68606457       19.29708154       13.82391123
  505      1      22.35402765        0.32512189       15.37262800
  506      1      17.90922521        5.39356913       14.72830199
  507      1      16.07193513       10.06770662       17.97554059
  508      1      21.96232884        6.77737088        9.59813096
  509      1      12.90431092        9.38368653        2.67141102
  510      1      13.78133040       27.59283834       13.56757619
  511      1       3.03442092       15.60684598        4.18236569
  512      1       2.53551947       16.36988689       16.22504235
  513      1       8.68702548        8.10949183       23.83446954
  514      1       7.93270741       16.86194025       26.21748424
  515      1      17.85271844       26.60777831       22.14508143
  516      1      12.69961208        4.76486483        6.09449561
  517      1      13.19319421       23.72489927        4.67828956
  518      1       7.10210661       20.29885967       22.94971895
  519      1       1.23072363       10.10497184       12.52759459
  520      1      10.00356969        5.53864136       18.06764503
  521      1      18.61412234       25.43547743       25.40701883
  522      1      23.17550220        1.92653980        8.41416720
  523      1       3.91124283        5.53732973       10.21346631
  524      1       3.12716883       15.93983098       22.69445782
  525      1       3.78058932       12.19469553       13.49589989
  526      1      16.33168230       17.28271874       24.59561414
  527      1       2.52790252       26.57927070        0.11492275
  528      1      12.87519662       25.99657859       20.60048667
  529      1      20.85358426       18.36875726       14.37305675
  530      1       3.90028631       21.78780987       27.15423782
  531      1       4.64943396        3.33467740        6.19703359
  532      1      14.80764514        8.24051294       12.18900732
  533      1       7.33022890        7.76772001       18.17574099
  534      1       6.47204966        3.34860872        7.60565821
  535      1       4.90391220        8.20833675       24.41439015
  536      1      14.26635253        3.47959770       16.82253088
  537      1       3.25190951        3.70552578        0.53034013
  538      1      23.74622045        6.80607241        3.03004728
  539      1      18.95627706       21.17306142       17.09447895
  540      1      20.48249454       23.04846262       14.66259630
  541      1      23.67391921        3.79457982       19.38712915
  542      1       1.11936231       23.96196747       20.24224606
  543      1      12.88356295       22.99473554       23.61014731
  544      1      13.38290095       23.62212866       13.41653533
  545      1       2.59794598       25.72263160       20.05720478
  546      1       3.02934933        1.58965610        6.15189803
  547      1      24.70206862       11.73667645       22.87111975
  548      1       7.94260273       18.63767486       19.69079806
  549      1      10.85795353       19.44660506        9.97067491
  550      1       4.63472528       22.16556379       24.85814067
  551      1       3.39223172       12.63352652        6.72820836
  552      1      23.07407735        1.76006889       11.76155094
  553      1      17.61411379        6.38363486        2.49897598
  554      1      18.45452835        3.11066420       17.73475330
  555      1      17.55533656        1.84092877       25.20215072
  556      1       6.78682138        3.26177432       22.27696590
  557      1      18.98473150        1.65659167       27.30369129
  558      1      17.77473945        7.96345306        0.78555736
  559      1      23.11973283       23.25304190       19.30663592
  560      1      22.83246645       25.33640544        2.83443517
  561      1       0.16231403        7.42691903       20.16334556
  562      1       7.73552964        4.77005769        1.45858561
  563      1       0.64496023       23.74279145       12.70208462
  564      1      20.27673130       16.72033158        2.11355917
  565      1       7.49401059       11.52415021       12.08211615
  566      1      26.86712927       24.28167476        6.75597538
  567      1      26.75317259       13.08468371       19.79439324
  568      1       0.86112371        2.15070417        7.19489586
  569      1      17.37170901        3.26487576        7.19150862
  570      1      27.33202559       24.92568911       16.11009201
  571      1      20.89162993       22.03854967       25.61082415
  572      1      13.68088195       14.89912253        6.11445752
  573      1      17.08356909       20.47903502       13.57659998
  574      1      25.50385016        0.26594574       17.54684279
  575      1       2.61044956       27.03364469       22.15170125
  576      1       8.90347920       18.82154316       25.44308243
  577      1       6.27342432       24.41923648        2.39783166
  578      1      13.14111865        7.48971070       17.71823413
  579      1      14.58000897       19.64054280       21.82815167
  580      1      15.72664606        8.55499172       21.95365364
  581      1      27.15069015       21.59418032        9.73674416
  582      1      21.23345468       18.76351399       23.74514259
  583      1      23.29139265       23.79504452        4.50806316
  584      1       6.69289442       21.71997558       20.96098123
  585      1      24.43594852       15.97265584       10.11721784
  586      1      20.64335713        6.89258530       24.84866377
  587      1      14.65268562        2.03221177        9.77379015
  588      1      25.74793380        6.02262452       10.76314103
  589      1      13.56515354        9.82057777       15.11509263
  590      1      17.20919781        4.77623954       22.97525131
  591      1      21.40943007       20.17177557        7.27212803
  592      1      18.66853099       16.82016574       12.05474688
  593      1       4.77187322       14.32196826       12.99048522
  594      1      11.06218107       14.76900996        3.11829968
  595      1      20.91368609       20.33015578        3.24016958
  596      1      17.84291035       27.65529657        0.74419792
  597      1      25.44384995       26.78653916        4.57056529
  598      1       0.24264702        4.95947518       17.65304016
  599      1       7.42466424        4.38186587       14.12602837
  600      1       8.92026611        4.45087299       25.09785262
  601      1       7.55362273       14.23497548        3.03924586
  602      1      11.44915746       16.12802135        8.97089106
  603      1      12.05110005        1.90025468       23.67048075
  604      1      17.56563247        4.22651772       25.20905815
  605      1      13.72799532        6.26075876        9.20513794
  606      1       3.58957062       12.25504458       26.52842828
  607      1      17.59210688        1.65683301       12.41229799
  608      1      27.16437481       17.14385003       19.08162006
  609      1      27.62316022       26.67343946       25.08882433
  610      1      16.26777284        6.85080119       15.75372394
  611      1      25.81633751       26.45987179       21.76701844
  612      1       4.46670378       12.68393399       19.42422970
  613      1      19.52429423        9.18719190       16.40491261
  614      1      25.36829500       23.29933302       20.15610565
  615      1      11.51974268       26.53721882        4.82762752
  616      1      17.99491428       10.46849191        9.94248177
  617      1       2.07959833       19.44491086       25.05182413
  618      1      13.63991545       26.15922480       10.18408600
  619      1       8.98652664       20.82646941        7.35875789
  620      1       1.97901489       19.94434293        7.21428247
  621      1      10.69542619       19.87435146       22.12348350
  622      1       6.97503806       22.86076941       16.93088205
  623      1      11.96954035        9.48663523        7.17152944
  624      1       5.80441892        0.94394388       26.71854269
  625      1      16.79624271       15.90978115       13.28236635
  626      1      15.26995749       11.34760897        7.09427647
  627      1      22.62665728        3.99727686        7.58519370
  628      1       5.80282929        4.27733810        9.63007996
  629      1      15.98931973       16.65496899       20.19819797
  630      1      10.60262923       22.04817829       23.36279775
  631      1      16.15523040       17.70101479        2.21755997
  632      1      20.64377772       13.58191003       19.05808688
  633      1      24.38435694        6.41759036        0.72638520
  634      1       1.08102640       14.49473126       16.90980852
  635      1       1.27943322        2.86512080       24.06386183
  636      1      18.25169621       22.08889538       15.00893912
  637      1      16.90745021       26.45605022       26.67440304
  638      1       5.68788857       17.69038345       25.93682358
  639      1       9.08848917        8.85174045        0.13742216
  640      1      23.61472547       22.09520638        1.16801180
  641      1      27.49962771        3.95279867       25.60627295
  642      1      10.99407391        1.21943651        8.94062167
  643      1       9.18733386       15.12391853        4.51944862
  644      1       5.79371245       19.80590622       19.84607227
  645      1       0.97492789        2.94349848       11.48767811
  646      1      14.49198073       27.13007214       21.89875325
  647      1      19.32191792       13.76243331       25.52481799
  648      1      21.33330647       15.78749246       27.44422991
  649      1      12.32140962       15.24702756       24.85077940
  650      1      21.55770288       18.22862234       16.74712128
  651      1      20.25260515        6.50733070       19.04537052
  652      1      26.81274627        9.59937266       11.57758357
  653      1       5.20277436       14.01112019        9.29806605
  654      1      25.41626108       12.04970440       18.13369881
  655      1       8.06237940       20.87869648        3.63515917
  656      1       2.05347380       12.82085275        2.26485534
  657      1      11.95178637       13.04582215        5.94985935
  658      1       6.68461271       16.07161950        1.82930226
  659      1      26.20458893       20.36294919       26.29951666
  660      1       7.95955157       22.77115402       19.03883382
  661      1      16.25629597        7.57542895       26.66450944
  662      1      19.39848138       18.53894212        3.31913165
  663      1       0.95609344       16.25781813        0.74316408
  664      1       1.12482211       25.39504475       14.27197478
  665      1      17.13367127        9.81077300        2.38429018
  666      1      14.99717134       14.54465540       17.54413159
  667      1      12.01893860       12.63423930        3.59793474
  668      1      13.06043294       19.85642020       13.01533303
  669      1      21.17777816        9.11167668       22.07806522
  670      1      20.73902542        4.93012210        8.80966266
  671      1      24.19226866        7.63387379       19.23882926
  672      1       8.57018354       11.76746395        6.83248683
  673      1       7.53556961       13.59575063       15.27514378
  674      1      16.40773592       27.27966937        7.49554085
  675      1       1.51161624       12.82702749       10.27810348
  676      1      25.63561847       11.53128546       10.81996318
  677      1       8.21970054        4.81926740        7.07780210
  678      1      20.29835069        4.63505540       17.61035547
  679      1      10.43728835       18.62947223        0.92707976
  680      1       1.81690104       22.79652841       22.14705218
  681      1       3.38976675        2.48435997       19.81393455
  682      1      12.64749257        8.62424344        5.01609948
  683      1      19.91860119        1.98288519       21.62806713
  684      1      15.33405176       23.84104229        3.78467151
  685      1      23.42856506        9.76652337       15.86961410
  686      1       2.32553699        8.85323399        3.17767611
  687      1      22.44301620       10.19506288        2.53538187
  688      1       4.26086720       12.32328577       24.32512981
  689      1      20.67891843       26.21235840       12.46938279
  690      1       5.30129084        8.59945912       18.89320553
  691      1      16.92409810       15.40332751       18.47252609
  692      1      20.92575272       10.26241419        7.16532734
  693      1      15.62071013        5.30776462       26.21290404
  694      1      18.98301381       17.82587152        5.72370805
  695      1       1.88108275       25.52608475       25.72973683
  696      1      21.35296529        6.55279062        2.13393414
  697      1      23.53608373        8.18488009       27.10919559
  698      1      19.04986347        0.68529820        5.14559425
  699      1      20.97141583       11.80819901        3.61995742
  700      1      23.54268914        8.37280558       21.64851506
  701      1      21.19517940       27.62657090        5.13760151
  702      1      24.96971370        8.82201925        8.56309883
  703      1      10.71148984       23.13659750       21.07284008
  704      1      10.51341591        6.76225429       12.06735165
  705      1      22.32145626       21.62810167       15.05506607
  706      1      19.27652749       15.84938988       22.04171229
  707      1       0.27815935        3.13508376        3.57745412
  708      1      10.78693539       26.78750556       21.42446178
  709      1      15.11434339       19.35621094       14.33126300
  710      1      16.41089793       27.61943687       20.61973142
  711      1      23.31412651        4.48587867       25.61510932
  712      1      14.50911294       17.40814054        0.42061970
  713      1       8.72540889        0.59880612       24.15922446
  714      1       5.39108032       17.64327057       14.56173300
  715      1       2.47523198        6.51098380       19.97235441
  716      1      16.28297249       20.07381439        9.81756574
  717      1      10.15173302       18.99546182        6.31730804
  718      1       1.20302426       27.62184597       13.50610583
  719      1      11.33781651       10.72292339       25.45891369
  720      1      25.49858664       19.39030491       16.10143964
  721      1       2.51502566       20.57096656       19.08133998
  722      1      19.13778180        2.61513557        3.78998230
  723      1       3.75382524       10.11958229       27.37037329
  724      1      24.08325383        4.82502232        4.18276929
  725      1      12.28688502       11.84771008       27.39948593
  726      1      10.11016541       13.36416158       20.23185836
  727      1      23.32607720        8.87106423        4.23769770
  728      1      13.70653337        1.92073947        5.98885139
  729      1      23.36588234        7.32352068        7.80301568
  730      1       0.14320206       16.05944116       24.38504118
  731      1      26.79188851        2.72147191        5.61864304
  732      1       0.40721577       21.19536883       25.15384318
  733      1      26.27017415        4.42614548       19.37158031
  734      1       7.31452544       17.70960857       17.64273878
  735      1       1.48378452       11.58713205        5.98212991
  736      1      19.22846890        2.11903293       14.23856995
  737      1       7.74299516        1.88920732       20.43584352
  738      1      20.94457180       14.36375399        6.43321958
  739      1      12.88003353       11.55095893        7.48686242
  740      1      13.75462126       18.68664191        7.78262540
  741      1      23.18147135       14.52541830        2.83347614
  742      1      19.17940061       11.50090646       15.93249492
  743      1       8.26337084       13.57678392       18.80046993
  744      1      22.93575977        6.81189943       25.24256586
  745      1       7.04193689       21.83472892       24.70658390
  746      1       3.31324513       21.35072082       10.70649141
  747      1       0.95995439        0.52511364       23.55078088
  748      1       6.07574630        8.76072317        2.52640166
  749      1       5.64461312       17.28335237       10.82767297
  750      1       9.98190230       26.22690163        6.57144798
  751      1      18.46502239       19.41551783        9.39659421
  752      1       9.23405025        1.75183364        0.10167791
  753      1      22.56732761        2.58977185       15.87069256
  754      1       3.75679843       20.28404665       23.73480557
  755      1      15.73301792        3.35427725        5.43754481
  756      1       7.11850418       18.86816763        4.44172660
  757      1      23.13912297       17.06644862       27.11326129
  758      1       3.75618042       20.24802523       12.78560299
  759      1      25.63295772        9.65917443       26.47162116
  760      1       8.79684349        8.95958999        9.37800338
  761      1       0.12753808       17.97769967       12.35451394
  762      1       3.07265582       17.16666769       14.07470767
  763      1      11.03304232       19.69209494       14.37960882
  764      1       7.43543906        1.67700948        3.67343120
  765      1       2.62473108       15.06236010        1.96753979
  766      1       3.74502069       17.76367656        4.14735772
  767      1      19.16482572       18.68295144       19.56239199
  768      1      14.58602519       18.12875349       25.85808399
  769      1      18.58731411       23.02793077       20.87701938
  770      1      17.10805753       16.51769952        6.49344360
  771      1      20.78812601        8.84974272       18.39973312
  772      1      24.64227230       13.07510831       16.09608633
  773      1       8.66274405       23.43736176       24.18061307
  774      1      14.02165590        1.94097054       18.63592705
  775      1      20.13629107        2.69306835        1.54376499
  776      1      10.45729474        7.19112311        9.73441324
  777      1      20.62894497        5.55070602       21.14270547
  778      1      15.60333218        2.89791445       12.90814309
  779      1      13.28430997       11.82325923       11.14411004
  780      1      19.40016441        9.10712501        8.68719420
  781      1       7.40841992       26.95304953       16.25777732
  782      1       4.77223974        7.69898998       10.00722921
  783      1      24.56187985       26.80783747        2.47939850
  784      1       3.65601360        6.00840116        0.50345839
  785      1       3.73903644        5.15952261       23.02649938
  786      1      13.65682983       23.59374050       17.64912150
  787      1       7.19147104        6.92142353        6.79635449
  788      1       9.78422102       13.71671776        6.33694761
  789      1       4.96816837        1.98072011       23.30781796
  790      1      27.24488239        2.17954268       20.35789051
  791      1      22.08684296       15.39662644       10.02534126
  792      1      21.49860461       13.51970855        8.63427278
  793      1       6.53186244       12.03046516       23.65109813
  794      1      23.94980677       12.23991472        5.99285736
  795      1       6.14199457       26.25155445       19.24766078
  796      1      27.51557125       25.03647271        2.42551531
  797      1      25.02359032       15.16300734       12.28046699
  798      1      25.74095473       13.68104909       21.95052364
  799      1      15.14426428       25.41264696        2.15897964
  800      1       4.52384936       14.26637854        5.44697318
  801      1      10.12584357        6.24449738       24.04676709
  802      1      10.67970630        7.49459516        4.34178515
  803      1      26.66618424        6.48504801       16.40253838
  804      1      20.07131262       20.86532924       23.68042367
  805      1       9.47235022       22.98201429       12.89532112
  806      1      21.18583883       23.64545307        5.74062897
  807      1       1.85632064        9.25501206       26.50570910
  808      1      10.75573231        3.42044073       17.70627930
  809      1      21.10345628        3.66673768       14.34682238
  810      1      21.00931849       20.09269518       26.94656830
  811      1      27.58358051        6.29750437        4.89827284
  812      1       8.50996000       16.99565764       21.46912677
  813      1      15.88560438        5.94841248        8.21561499
  814      1      16.53243624       11.84404180       26.76300744
  815      1       8.35951626       14.71320299       25.27513523
  816      1       7.56904448       24.78274474       22.59069440
  817      1      26.43124252        7.89555453       24.86116007
  818      1      14.53874457       10.97917822        0.03545528
  819      1      11.65197750        3.05122903       12.16553832
  820      1      10.84976324       12.36387383       14.38975473
  821      1       2.00846652       18.25744111       19.23954539
  822      1      13.78055285       21.04631228        7.67802781
  823      1       0.78931286       11.32701066       19.99701496
  824      1       0.67456947        3.65541206        9.11259653
  825      1      10.30133144       14.74408552        0.90195882
  826      1      27.35284000       23.88710732        8.99997724
  827      1       6.19636730        5.23385013       15.97503389
  828      1       0.89912092        0.90566450        2.97847969
  829      1       5.91372193        5.65149754       22.11770262
  830      1       8.82717950        9.64632723       11.72566555
  831      1      26.65470767       10.94946665        3.41890272
  832      1      19.58220550       11.26623982        5.44509017
  833      1       2.16082159        5.41346993        8.55064202
  834      1      15.45258478        0.04671269       15.26541626
  835      1       4.15342783        0.96551446       21.41250826
  836      1      25.88253571       12.29927031        1.66344802
  837      1       8.36238676       24.62774537        5.72504082
  838      1       2.67214137        4.46613949       21.05812719
  839      1       8.06373769       24.64522155       15.88747186
  840      1      22.01500503       26.73774112       19.80079356
  841      1      22.22699382       23.19877226       21.47357067
  842      1      10.32012519       15.36145891       21.58214414
  843      1       5.25830427       18.81583924        0.40252171
  844      1      12.30251363       10.19414785       20.44599672
  845      1      24.97688317       15.68835671       26.60182983
  846      1      13.28576457       24.81214497       24.94476427
  847      1       1.99041859        0.73175557       11.33980227
  848      1      24.34187961       15.53418645       22.74800693
  849      1       5.85106920       23.25781913       12.81363867
  850      1      19.13761543        7.95596400       12.45748726
  851      1      17.49895760       21.46063152        1.80061358
  852      1      15.63793126        2.43648780       15.21874802
  853      1      16.73151418       10.70513551       24.62408856
  854      1      15.31090158       13.22127458        5.55630782
  855      1      11.67997184        2.36855447       19.62548051
  856      1      11.46095351       22.57887534       17.27977755
  857      1       1.96798782        8.41543751       14.10650880
  858      1      23.19298320        0.80157641       22.90445931
  859      1       6.91089709       21.06086318       15.40123605
  860      1       9.02626274        4.33287026        5.00889700
  861      1      10.47594717       24.39879990       15.96772301
  862      1       3.32895138        5.24986410        6.37723959
  863      1      14.27304836        1.51000299       23.23065930
  864      1      20.26617575       10.24929068       20.25495582
  865      1      18.54385201       12.39373031       13.75036684
  866      1      27.23223561       26.33630408       17.95972100
  867      1       6.81845894        8.20275683        0.34032183
  868      1      11.05583542        5.26405000        4.50606709
  869      1      22.75903925        0.29848622       27.19222948
  870      1      23.65840729       17.04648574       17.25822741
  871      1      20.98207400        4.70956161        0.58827057
  872      1       5.26403513        8.63127260       12.08279584
  873      1      25.06573448       10.11727975       21.30437444
  874      1      13.92601437       16.39290774       16.59276443
  875      1       3.34402479       16.98328081       10.25592097
  876      1       4.43930708       15.14050733       16.73117126
  877      1      21.84478215       13.82353281        0.96354965
  878      1       2.91342039        0.88593900       14.87651498
  879      1       3.15826813        6.61939527        2.81011896
  880      1      26.15002176       27.60831072        9.30322324
  881      1       6.71073220       11.30879519       15.93648449
  882      1      15.09467497       18.45774970        4.20816823
  883      1      23.05039457        9.32234020       18.13941821
  884      1      13.79406817        5.83244157        1.93874062
  885      1       5.03848466       26.37562301       10.82061830
  886      1       2.76498604        7.07437211       24.09862162
  887      1       0.45380675       27.64368382        7.96230780
  888      1       1.93081692       24.55288339        9.23265943
  889      1      18.81369056       17.18320911        9.74904792
  890      1      22.45766805       16.69935851        3.01413761
  891      1       1.54147306       15.54502335       26.28965469
  892      1      12.27767874       16.62585693       20.97890501
  893      1      13.61275436       21.87521387       11.81191689
  894      1      25.93281711       25.75296725        0.61339777
  895      1      12.17924763       27.19577962       27.42672686
  896      1       2.82637387       13.81209308        8.67556392
  897      1      19.42227929       26.21132790       14.58618989
  898      1       2.94631458        8.87385505        9.04314802
  899      1      22.82731197        4.43399168       21.50046442
  900      1      25.12478443       26.50483354       13.49532472
  901      1      17.54629524        7.24717242       22.92105157
  902      1      20.83612302       23.86139950       12.49016899
  903      1      17.06875190       25.93254853       14.50739928
  904      1      26.68849299        6.00863938        0.91150408
  905      1      17.76482095       14.36860315       14.74436474
  906      1      14.25234011        8.77711437       27.01341033
  907      1      17.10494276       26.91078261       18.38939941
  908      1      23.91892026       27.62709608       20.84579915
  909      1       0.63193211        2.80762289       16.86479072
  910      1      11.31406889       26.50321791       16.65127191
  911      1       9.62001914       26.09891833        2.12415437
  912      1      26.70489942        7.94880991        9.87896220
  913      1       5.97390989        2.50913322       10.96669897
  914      1      20.39042844        7.81601900       14.66592391
  915      1      22.07239449       26.46789796       23.59159231
  916      1       6.75622958       11.33868631        5.38993327
  917      1      24.61954549       22.17389883        3.32276781
  918      1      22.21957063       20.21631967        1.29936125
  919      1      26.66401558       10.12974841       17.33499390
  920      1       5.41019598        7.36072303       15.50929810
  921      1      11.32525212       12.11287934       23.53160261
  922      1       8.92807685       20.90363197       13.94813268
  923      1      13.58366032        5.26356875       22.61939789
  924      1      17.52739083        8.53054729       24.93101001
  925      1      17.29933012       24.52301367        5.16595011
  926      1      26.10415782       15.01063423        8.65557478
  927      1       5.66787167       18.80010038       12.58249335
  928      1      11.64215201       27.65740826       14.47605989
  929      1      16.45347974       12.02901522        9.03244702
  930      1      13.65730598        1.27327583       26.75585667
  931      1      17.74898962       19.26490550       17.68489449
  932      1      19.53229524        1.11026821        9.32340712
  933      1       3.39684882       13.01362213       17.28066889
  934      1      19.99397782        4.43169255        4.98347159
  935      1       2.33693526       26.93009349        9.23095834
  936      1      20.99201858       15.72040674       20.16693537
  937      1      15.44461460        7.27780918        3.07311100
  938      1      14.89666053       10.63909531        2.30588523
  939      1      22.40089707       11.96547691       12.92584302
  940      1      14.69779217       11.80738285       14.39977461
  941      1       8.13215966       22.20877821        5.60069994
  942      1      15.77902393       17.19949057       15.14575586
  943      1       5.70297888       21.98819845        5.78831744
  944      1      12.65591868        7.80252316       19.96328817
  945      1      12.24111256        2.14274205        2.37662079
  946      1      25.98220340        4.13033369        9.39705724
  947      1      15.44969181        0.52497495       25.33492346
  948      1      12.49127282        8.26386835        9.17080479
  949      1      15.53832391       22.30295017       18.76403820
  950      1      21.38692554        3.24828074       24.96806817
  951      1      25.29592904       20.72454029        8.58392287
  952      1      10.35863039       21.67566598        9.23143206
  953      1       8.71012971        9.50517852       21.82785770
  954      1      18.00324649        7.47137905        7.43371813
  955      1       9.93921017        2.74346653       10.36407207
  956      1      23.47327743        8.08348084       12.66573191
  957      1      21.03722689       15.20633258       25.17484592
  958      1      13.46538585       21.71212899       27.03539288
  959      1      13.64414923       24.44642475        8.61028957
  960      1      15.16595297       15.95882833        9.71973283
  961      1       9.62739301       13.40580662        9.93251080
  962      1      21.05293828       17.13502309        8.90324596
  963      1      26.45569679        2.44170024       12.37741973
  964      1       6.09652410       27.13555673        6.83363093
  965      1       8.57726893       14.68750616       11.72299549
  966      1       8.01757659       20.88149311       26.58234736
  967      1       7.38479958        8.92617597       15.42023719
  968      1      18.34714463       11.29520677        0.73081810
  969      1       4.55700778        7.50548116       20.78560313
  970      1      11.77890953       13.19751212       18.51387202
  971      1      26.37554124       21.26882453       19.55861240
  972      1       0.34566946        8.10235313        6.40186279
  973      1      18.34379777       11.69451473       23.08953970
  974      1       4.74540206       23.04243495       17.66943729
  975      1      11.24077143       10.03513548       14.65231406
  976      1      25.10088018        1.53189947       24.08760866
  977      1      19.22003274       22.77651576       11.14701450
  978      1      26.13714289       12.17874718       14.37964832
  979      1      17.13248076       27.26044096       11.22137750
  980      1       0.96092023        0.69660961        0.60010778
  981      1      14.19178633       11.61037560       20.71702268
  982      1      23.30564953       25.91653074        7.62851404
  983      1      15.17236945        3.48309440       22.29181975
  984      1      24.23247974       13.50423652       25.83184142
  985      1      12.86468895       17.40246514       18.66009844
  986      1      25.85007906        4.86707895        5.68959159
  987      1      14.87929661        5.79149170       17.37569606
  988      1      11.54886090       19.84762960        4.61959334
  989      1       3.57798836        3.27731684        2.92056361
  990      1       8.59606179       17.32862755        5.54840467
  991      1      25.78303791       13.63022658        6.48921003
  992      1       3.84472398       23.69737634       23.23187968
  993      1      17.68205216       16.95340490       16.75284102
  994      1      13.29996393       25.51171720        6.29044100
  995      1      22.33807853       13.36290941        4.71256641
  996      1      24.39532870       18.59198232       13.96698369
  997      1      19.22508029       25.27110540       20.89264125
  998      1      12.24796547        5.33234533       12.54510950
  999      1      14.31146919        2.17524186        1.09462345
 1000      1      18.03601234        9.66221949        4.67086043
