run_id:  1018  total_energy:   -3023.98979079038

  1000 atoms
  1 atom types
  0.0   27.664  xlo xhi
  0.0   27.664  ylo yhi
  0.0   27.664  zlo zhi

 Atoms

    1      1       0.03571534       18.75858930        6.77112946
    2      1      14.69165478       18.60359807       19.58336025
    3      1      19.86467840       15.24369896       15.86383067
    4      1      17.40727548        8.43985027       17.30713878
    5      1      12.80345700       12.83609301       13.22874429
    6      1       8.85494978       16.66661997        0.75057703
    7      1      13.87079738       23.98519897       26.98285364
    8      1      24.68442441       22.88272673       12.50076248
    9      1       0.67642889       26.03709276        6.14419985
   10      1      26.78203794       27.53080808       27.08324493
   11      1      26.27081854       24.02170272       26.52131367
   12      1      24.71449928       12.79830519       12.54991085
   13      1      11.71975234       16.39664502       11.39559048
   14      1       8.78430732        2.83301197       23.40484941
   15      1      22.33201150       12.24289296       22.83258702
   16      1      16.00191444       21.58148604        8.00786787
   17      1      22.73744211       17.43622373        5.20817442
   18      1       5.66700512        9.40824320       26.33178475
   19      1      24.99427030       10.33440341        5.00038380
   20      1       8.66954344       12.95224617        1.29211498
   21      1      25.65474541       18.10208758        1.77983342
   22      1       2.96512021       23.66210357        7.24634812
   23      1       4.99490225        2.31226951       18.01581656
   24      1      10.41593533       14.39235199       23.85026555
   25      1       0.46462451       14.89854511       19.13825688
   26      1      27.46047504        9.47255558       21.26439427
   27      1      12.90546112       18.17923876        3.62884753
   28      1      22.33195758       19.10631057        9.29059462
   29      1      17.72098639        3.36599591       15.57208830
   30      1      27.32075919       22.38525655        5.61275176
   31      1       4.76206569       21.78814349       14.27322355
   32      1      16.69525410       18.84180290       22.82773459
   33      1      16.94682908        2.92430832        3.32239453
   34      1       9.64177723       16.74060815       12.34718379
   35      1       8.22964309        6.10541146       12.55395383
   36      1      15.75037778       27.18151111        3.58566781
   37      1      10.64855065        6.61335051       20.13066664
   38      1       7.07718953       26.92250529       23.03607491
   39      1      21.85518249        2.78649022       18.15179039
   40      1      10.72966244        0.53332223        1.30520601
   41      1      10.81716949        7.15090291       27.66126358
   42      1      10.56369865       25.33927495        8.69819448
   43      1       4.33086466        0.77670086       11.54350233
   44      1       8.93913906       18.79480390       23.15162877
   45      1       1.39935328       13.18598092       26.42027950
   46      1      23.82097714       11.07098070       19.48576036
   47      1      14.39685317        7.69881346       14.48423483
   48      1       6.63743310        5.00604289       25.72311444
   49      1      14.98953975       20.38557919       25.90667238
   50      1       9.76455906        4.83661498        8.99196915
   51      1       1.41570608       18.51544314        1.08073775
   52      1       7.38135132        2.40962674        1.31521154
   53      1      24.52436030       19.92665308       22.68263738
   54      1       0.13938298       21.47116833       13.44871147
   55      1       6.81954359       21.95514428       11.09852965
   56      1       4.65840559       24.47096168       19.61072539
   57      1       1.90657190       18.83159488        3.36559910
   58      1       5.74466428       11.75107272        9.33223134
   59      1      27.18057676       11.75895878        7.31141337
   60      1      23.36151048        4.42292569        0.19472792
   61      1       2.38679921        3.08610705       15.36310278
   62      1      18.78760960        0.72587564       23.30239052
   63      1       8.10614013       11.68030455        9.25226405
   64      1       5.40235833       27.57402740       17.41973360
   65      1      20.45861169       21.76536152       21.55262174
   66      1       7.09105671        5.13512011        3.64118448
   67      1      15.96399276       13.25052465       15.94573404
   68      1      24.47937763        7.24595480       23.56035832
   69      1       0.22634561       12.30302105       24.62345641
   70      1       7.17710523        2.99100304       18.47193405
   71      1      10.38920072       17.39519342       14.61859857
   72      1      13.74249442        9.74816705       17.36436631
   73      1      13.30584651       21.09972634        1.55118469
   74      1      24.64533242        3.55515106       15.54477077
   75      1      26.31280552        1.82953971       15.97422465
   76      1       2.57810418       10.67890340       10.68832541
   77      1       2.53660098       23.57371766       11.23099520
   78      1       7.64562161       20.01857930       12.19775916
   79      1       3.83846334       16.84318407        7.83658401
   80      1      23.70056646       26.54343458       16.69004611
   81      1       6.98269994        7.54530974        9.04894517
   82      1      18.84011124        4.01110733       21.33938043
   83      1      11.05279821       18.98606473       26.24959602
   84      1      14.75061967       27.37967651        5.80083021
   85      1       0.72092404       21.96955840       18.59184212
   86      1       5.68122071       17.98664172        2.78718514
   87      1      26.84638735       25.12141915       19.95992986
   88      1       9.53728289       14.99780850        8.25258521
   89      1      25.30335514        3.80083609       24.49003155
   90      1      24.27000697        5.92760666       16.13454310
   91      1      11.77645706        4.49872194        2.43463466
   92      1      25.65601244        8.48010044       13.26560515
   93      1      19.94294712        0.45968180       15.63277737
   94      1      16.11419954       10.31150594       20.38215436
   95      1      22.84455033       14.24137379       24.05694036
   96      1      17.74696588       20.82434843       23.70238253
   97      1      10.13764026       19.79627860       19.79400105
   98      1      12.99186831        9.46871736       11.21902749
   99      1      25.70248232        9.97097917       15.17108036
  100      1      27.56258364        6.23901254       26.30786560
  101      1      22.72139462       11.64252618        7.94970466
  102      1      15.03342326       26.04566575       23.98491862
  103      1       8.98773735       14.70696388       16.84963751
  104      1      18.94323524       22.89149425        5.00829895
  105      1      17.90686106       26.49020561        4.07601944
  106      1       2.93324260       25.46987291        5.82324563
  107      1       9.68498148       10.04241518       18.13410062
  108      1      11.21476312        5.36333368       22.13303048
  109      1      23.80611204        1.40463926        2.53478966
  110      1      16.05040328       24.52123834       27.65269200
  111      1      13.86474540       13.65615322       19.47888015
  112      1       1.77617851       15.69806150        7.50586834
  113      1      11.10372029        6.94344395       16.52963627
  114      1      12.87580264        7.75359564        0.97045817
  115      1      23.73295688       24.43115975        9.47402929
  116      1      17.17254373       14.60476706        5.18914738
  117      1      19.85664427        4.88711039       25.90986441
  118      1       8.65323472        2.39303330       14.73059977
  119      1      18.92048782       19.01578343       12.98066368
  120      1       8.89391936        2.13615973       17.06797494
  121      1      12.56582215        5.93135911       14.80926181
  122      1      18.14144043       15.16518789       27.05951418
  123      1      26.95891546       14.27496836        4.57635575
  124      1       5.81771717       19.24444208       16.49813722
  125      1      14.49441370        6.83379434       21.06638338
  126      1       2.67845483       12.35878083       20.96329767
  127      1      19.63498769        6.30776950        3.68313977
  128      1      11.11921993       13.94731503       16.26353841
  129      1      20.91758299       16.69223919        6.54022313
  130      1      14.96020070       22.22194079       20.94168960
  131      1       5.06834387       11.02690029        7.10395787
  132      1      14.89270041       17.22404135        6.21067138
  133      1      25.01349361       25.09813954       15.36149743
  134      1      16.87587373       22.74812091       22.46925189
  135      1       5.20392728       23.20682427        7.68334070
  136      1       6.08876821       20.99310383        0.35856661
  137      1       9.50539328        2.00997070        4.99512126
  138      1       3.04456119       19.45449882       27.33786510
  139      1       6.21164486       15.00963359       11.25468753
  140      1      12.99787599       15.82879369        3.83888777
  141      1       9.61639804       24.48685850       26.12335877
  142      1      26.63695264        0.70057889       13.88432139
  143      1       9.17862091        9.70226799       25.61910387
  144      1       3.89424007        9.03486518        6.87604616
  145      1      16.93872805       23.47785425       11.03106711
  146      1      21.62153865        8.61370322        0.97912045
  147      1       1.84482212       21.88246007        5.98946404
  148      1      11.40026910       26.89230932       10.28151090
  149      1      13.75719447        1.83848115       12.00496786
  150      1       7.33402683        1.18913081        7.93724628
  151      1       0.42844757       12.17549887        0.59555101
  152      1       0.12301926        9.17302997        2.38414837
  153      1      15.44118147       20.62417693        4.75064173
  154      1       7.80744636       25.62601269        3.67149981
  155      1      14.08864678       14.40840635       23.38499473
  156      1      24.79498216       17.59804333       19.25500367
  157      1       2.12000478       24.88830187        1.71314512
  158      1       8.73175710        8.29554770        5.45019808
  159      1       1.18669152       14.13629262       12.28614956
  160      1       2.14694614        6.91202862       26.40007628
  161      1       4.25642909       20.60369000       17.93208970
  162      1       5.54681231       16.36751034       18.48889197
  163      1       4.99302064        1.17132561       13.82276457
  164      1       0.62167004        6.34704813       14.35623830
  165      1      13.32124837       14.87087185        8.55886055
  166      1      19.42975293       23.57823076       26.69673559
  167      1       5.79780533       15.23440130       14.89110463
  168      1      11.04851265       18.64082278       17.92890692
  169      1      14.63539579       18.28479343        9.85298304
  170      1      26.63433796        7.26943898        2.97320698
  171      1      11.51333552       24.50666265        2.77260192
  172      1      20.61751906       15.35408482       12.04792526
  173      1       7.31681885       17.96942945        9.33061167
  174      1       1.78278708       14.48573207       21.34275582
  175      1      16.32946201        9.17912163        6.28305548
  176      1       2.26215407       21.12945524        3.72801236
  177      1      18.09223246       13.59973629        8.50922639
  178      1      25.73950504       23.29918473       22.60688438
  179      1      11.48799518       18.24399129        8.06533654
  180      1      25.57118654       18.06955767        4.06046847
  181      1       8.26835077       25.23726730       19.00543477
  182      1      22.64712695       20.97987632       18.74318455
  183      1      15.39616615       21.75157275        2.75271989
  184      1      21.15114301       26.86225001        2.90157992
  185      1      24.96440067        1.48797641       19.46069105
  186      1      21.88820209        8.35712365        6.08202226
  187      1       0.85926913       23.34028128       26.25953807
  188      1      12.58929446       18.44906354       22.55264043
  189      1      17.45171111       22.59207416       27.39652009
  190      1      14.90901305        5.51165293        6.05745732
  191      1      14.16690948       25.58882950       12.40682875
  192      1      10.81820561        3.09949739       22.00996530
  193      1      25.76082014       25.25031347       24.07251087
  194      1      21.82059838        0.96399911        1.57176845
  195      1      10.27373240        3.55156289       26.74176836
  196      1      18.03280001       24.72745035       17.52103350
  197      1      21.33461960       20.59732499       16.93284311
  198      1      16.42387481       25.38594052       12.36413493
  199      1       3.36095016       26.91309370       16.46681953
  200      1       1.19425426       18.08468502       10.22226287
  201      1       4.01857593       15.95551164       26.22357330
  202      1      16.08679010        5.84055446       19.45490030
  203      1      21.93983702       20.52721283       11.21285797
  204      1       3.77489356       24.85594986        3.50308255
  205      1      18.22490232        5.77091244       11.04777065
  206      1       9.16310202       10.59740319        1.88422272
  207      1      26.82510382        5.52578056       21.33535374
  208      1      26.41580566        7.96011573       18.31362699
  209      1      24.91978521        4.06462253       13.31870651
  210      1      12.94192617        9.00075422       25.09952501
  211      1       4.73586372        9.29728218       22.38690425
  212      1      24.81041595       22.19048275       26.74427315
  213      1       0.19020110       17.86651296        4.69944125
  214      1      23.21097316       16.69348966       20.94559642
  215      1      13.17895983       25.94295860       18.12421314
  216      1      14.16063391       15.30932889       21.16939495
  217      1      26.28119303       15.98135537        0.98196828
  218      1       4.89370741        3.19357426       26.43958927
  219      1       3.79860428       18.62961399        6.38249352
  220      1      20.50867554       10.73055772       23.78590016
  221      1       9.91711045       22.36292099       27.25139836
  222      1      11.38819633       26.01410459       25.47782143
  223      1       1.09626275       12.22534131       13.73083179
  224      1       9.77865511        8.88633715       16.11007644
  225      1      17.29797840        3.80171980       19.58484925
  226      1      16.50840158       11.51544437       12.89417794
  227      1      25.55059964       14.41103715        2.58520512
  228      1       6.16868422        5.98461724        0.14120751
  229      1      13.65701021       12.09872655       22.99670380
  230      1      26.73963659       20.19274917       21.62374870
  231      1       7.60908118        5.62693242       10.27975425
  232      1      22.41917684       19.82481065       13.49696047
  233      1       4.42083178       12.18250427        2.35946361
  234      1       1.15118108       19.02727734       21.64588987
  235      1      21.38315820       16.10061256       14.08710184
  236      1       1.78142573       27.04405707       18.27165207
  237      1      17.05410868       24.92985644       23.59795200
  238      1      20.07271861       24.00768664        1.27131035
  239      1      14.21633541        6.09131136       11.39502029
  240      1      22.22407181       25.17738046       17.96787598
  241      1      14.67779130        9.99783722       23.68414734
  242      1      19.51929825        7.82750886        5.37107286
  243      1       5.43866209       18.69894492       23.74545439
  244      1      24.87410470        2.74598566        0.86718378
  245      1      12.13395819       12.84029605        9.41380761
  246      1       6.85420008       24.98112793        7.52547823
  247      1      19.01203134        5.02825768        7.05582051
  248      1      12.16600032        3.70037180       15.83813103
  249      1      22.48969414        9.91341966       11.52644367
  250      1       1.36176627       18.87861489       16.12385430
  251      1      16.08400680       14.17148539       26.58388502
  252      1       3.02736335        1.15440336        3.78341438
  253      1       5.20706529       13.12623067        0.29056218
  254      1       5.74923250       23.47139122       21.53175461
  255      1      11.84262033        6.85520067       25.47687372
  256      1       0.99909986       15.76058745        5.23739156
  257      1      24.47222187        0.23556200        7.68007702
  258      1      24.64464870        5.20903137        7.64566579
  259      1      15.45201135       27.50649781        9.57584553
  260      1      23.39866157       18.15867343        1.42506495
  261      1      21.17811356       19.95072775       20.30550420
  262      1      25.56122854       16.71891902       24.54759854
  263      1      24.92860921        1.24590143       26.62698332
  264      1      19.95809328       16.89596582       24.07193060
  265      1      12.82372013       18.73254527        1.44280828
  266      1      17.48296361       21.21220379        6.11473034
  267      1       7.39573920       26.67891610       10.77548714
  268      1       9.36041909       24.98960174       21.05392251
  269      1       6.90473825       19.96030099        8.25595437
  270      1       5.38911011       21.53262059        9.36302773
  271      1      16.35337002        3.50296106        9.35618409
  272      1       4.82440903       10.94964514       11.66684758
  273      1      21.84604361       12.03516991       20.41305859
  274      1      15.95889893       21.47639877       11.67998415
  275      1       0.04580100        9.85972748        0.12263113
  276      1      22.29178879        3.81505211        5.27955656
  277      1      17.99663369        7.21426233       19.18262667
  278      1       4.89808928       17.16342308       21.98450212
  279      1       8.85625573       22.96826680       10.56836985
  280      1      20.23128921       24.78285560       16.39950339
  281      1       9.64031412        9.64741996        7.12515871
  282      1      26.77617820        0.83319272       22.35629188
  283      1       2.02877678        4.99974908        4.26602520
  284      1      20.91431527        1.13217317       26.01104676
  285      1       2.66041813        5.85792724       17.71102241
  286      1      22.78343579        7.70643626       14.94299690
  287      1      15.47217468       12.66757036       11.12352207
  288      1       4.41465331       14.70734648       24.28458365
  289      1       1.48205327       10.31396550       24.34475594
  290      1      21.42999108       25.37037551       21.61763825
  291      1      10.39474960       11.26198378       21.56410837
  292      1       4.12452228        4.10615611       16.67682286
  293      1       2.89262753       20.63311978       21.74297202
  294      1      23.46616883       25.69235013       27.16393849
  295      1      20.67921810        1.02189712       19.44598929
  296      1       0.13039529       14.10049257       23.04216202
  297      1      17.88060351       17.56855884       21.23894912
  298      1      14.28922767       15.04403880        0.24266851
  299      1       0.58852516        8.45307698       23.37241940
  300      1       4.80459371       27.08243883        0.60033795
  301      1      19.43196649       25.36485703        8.37712448
  302      1      14.65785583       14.67454648        2.49055417
  303      1       7.26683665       11.06924216       25.66397077
  304      1      17.23716196        4.36269282        1.53880415
  305      1      19.99805381        7.17254193       22.55636664
  306      1      16.78760498       23.88903091       15.61345748
  307      1       4.11667293        9.93754261        2.04923290
  308      1       1.52568648       20.31783368        9.50579867
  309      1       9.45095769        0.83369331        7.08506387
  310      1      25.03504905        1.07418941        5.65112827
  311      1      20.17013278       16.93720361       18.18877399
  312      1       0.98502793        3.00046931       27.62491024
  313      1       3.15748145       10.99264976       22.84041127
  314      1      23.79112481       22.16947147       23.00013172
  315      1       1.38631431        1.63724077       18.83902103
  316      1      14.87178415       27.51833950       17.56393537
  317      1      13.22808120       21.42618230        5.43657132
  318      1      25.61869357       18.97904769       11.95004776
  319      1      24.61724079       18.47035571        9.78267986
  320      1       4.17529332       24.80992717       12.39386393
  321      1       7.71397740       24.36494692       13.64446033
  322      1      12.53983102       17.65883533       24.84956587
  323      1       2.06571720        9.37741899        5.50263293
  324      1      20.28561016       13.02665795       12.25739063
  325      1       9.91723297        0.73263984       19.94582903
  326      1      23.98113448       22.65287103        7.96780173
  327      1       8.26916786       26.48939332       12.85047503
  328      1      23.31787044        6.09794159       11.40395607
  329      1      14.82089213        7.69017641        5.21808639
  330      1      21.71267832       22.36130800        7.57274605
  331      1      23.77257413       16.25944370       13.92736559
  332      1       3.80297363        5.19985158       12.61898137
  333      1      22.58965987       18.77618171       21.81757051
  334      1       0.69318702        3.79452871       21.93863859
  335      1      10.99663043        2.26326417       14.27269750
  336      1      26.19721954       21.20854793       11.82471105
  337      1      19.60913002       20.44275598       11.18943787
  338      1      24.86582256        5.19906646       22.63122649
  339      1      20.05349510        4.21383331       10.78831419
  340      1      19.06407944       19.71834317        7.10394526
  341      1       8.72807663       13.07619831       13.42601162
  342      1      11.45572273       11.05808731        1.93485570
  343      1      18.72961577       19.17725012       27.04815588
  344      1      27.02576097       15.72849147       15.41540773
  345      1       3.55789206       25.85309179       23.98351793
  346      1      10.09541031       22.00471557       19.15496169
  347      1      24.10560099       10.94532853        0.83365022
  348      1      13.48022247        5.13680276       25.07951972
  349      1      26.27042134        6.14923905       13.12832547
  350      1      26.23828077        9.63102150        6.81848084
  351      1      18.21314391        1.05717557        7.22047472
  352      1      26.85721060       22.91755250        3.32952465
  353      1       8.11645630        0.29901756       26.41048965
  354      1      12.91126542        2.27349440        8.25421276
  355      1      19.76330005        8.97306269       25.43015903
  356      1      16.11479059       14.91754102       24.33404888
  357      1      19.71834423       12.47055972        9.99930874
  358      1      18.22412920       13.30973354       19.18541806
  359      1      22.63986507       18.81323557       25.62956795
  360      1      25.83537874       25.31220552        9.99478285
  361      1      15.11189916        4.38698046        0.64816404
  362      1      12.37708702        3.04600642       25.69693850
  363      1      10.16508748       20.40766415        2.75749339
  364      1      26.06982527       24.75920960       12.16216784
  365      1      16.17804415        1.13930763        2.07140422
  366      1      18.96521808        0.73561644       17.82489788
  367      1       6.64197695        6.75698715       24.03903371
  368      1       6.66538607       15.71463008       21.70821460
  369      1       8.39818586       25.88385607       27.56870535
  370      1      15.56060122       20.09213906       18.02247006
  371      1      10.85777118       27.49966798       23.69271415
  372      1      26.96551974        3.74223200        1.46205560
  373      1      23.15153369        5.87653257       18.23972141
  374      1      14.37151048       12.61324825        3.46361618
  375      1      16.82648857       15.47325810        2.96390215
  376      1       6.22251487       14.50070020       19.73359350
  377      1      26.14378807       20.49471842        6.43418501
  378      1       9.06237387        8.38790040       19.79456624
  379      1       4.03918337        7.37951868       13.58515997
  380      1      27.03569022       12.80603335        9.46102314
  381      1      24.73757742       19.91105675       18.42095598
  382      1      12.70525100       22.30581344        9.45478608
  383      1      13.03717877       23.69900784       21.27466467
  384      1      23.87848724       10.53352696        9.69103175
  385      1      18.15531803       11.39695089       20.77867363
  386      1      14.28822076       20.61872076       16.09672848
  387      1       5.81619587       19.70807181        6.23276206
  388      1      27.08317601       19.76769360        0.83529576
  389      1       4.16177594       17.77169062       19.88522839
  390      1       1.22657674       10.92208565       17.59456602
  391      1      11.11721519       22.28851163        1.73905255
  392      1       1.61629429       17.63677518       23.52539133
  393      1       3.76729005       27.27783927        7.16011584
  394      1      26.41739739       21.50487445       15.37903672
  395      1       7.32311268        0.46280958       14.27147134
  396      1       4.55962896       27.18287092        3.05497812
  397      1       5.50217943        3.53382881       13.13131045
  398      1       5.60640557       15.33762735        7.36438084
  399      1       6.32024604        0.04682706       20.91926795
  400      1      27.07776873       17.78633107       16.57734209
  401      1       8.94030961       18.51723685       10.94293434
  402      1       7.82941252        1.30526763       10.24889852
  403      1       1.78855223        4.36004626       13.42144808
  404      1       5.69053168        3.32769448        4.08471503
  405      1       7.42587744        8.28514028       13.00983704
  406      1       1.04686727        7.51773270        8.59381079
  407      1       2.72125858        9.64861418       16.12600685
  408      1      25.18584264        2.05877737       10.42784064
  409      1      19.24893980       26.64966388       10.40472735
  410      1      18.43186394        2.55845163       10.43474139
  411      1       7.58266469        5.39833360       17.92999959
  412      1      18.32948510       17.21700763       25.80938950
  413      1      11.85714597       10.90990382       18.33707075
  414      1       6.17530442       25.18963052        0.23862309
  415      1      14.50261864       21.28896124       23.84384075
  416      1       3.00633499       15.61674955       12.32348760
  417      1      12.21263065       14.24696251       27.12308368
  418      1      21.82239748        1.05685025        9.95911200
  419      1      22.80895968       27.45244663       13.10397411
  420      1      10.62890796       26.45256882       12.67815308
  421      1       6.62102017       10.55674022       21.77713181
  422      1       0.62590363       12.45475290        4.09418488
  423      1       7.75450289        9.78775380        3.82314601
  424      1      20.25156278       23.36203015        9.14204023
  425      1      20.66967957        8.56436050       10.63922938
  426      1      22.41244461       24.11393537        0.96005449
  427      1      17.25916018       20.75731730       26.00100196
  428      1      12.71723456       18.52814595       11.20813529
  429      1       3.29855563       25.10619079       14.77825342
  430      1       5.86068622       13.00512679        4.06299168
  431      1       7.43413954       13.02942852       26.97156438
  432      1      24.46181759       22.79547973       14.83240561
  433      1      22.65569958       22.92393929       11.25715071
  434      1       3.58010506        3.31584086       24.42456626
  435      1       0.59314667       22.79951573       16.43678321
  436      1      21.14467939       25.79871291        6.70594794
  437      1       8.33815805       24.99604775        9.42110797
  438      1      15.97973003       23.75946419        8.81161099
  439      1      12.97665189       25.38496324        1.11812137
  440      1      20.80128343       13.13701700       16.65952374
  441      1       3.87114725        7.93211848       17.16566837
  442      1      17.28074834       25.11686994        7.43271991
  443      1      17.27551250       15.79999678        8.68813066
  444      1      10.11310587        5.08027260        0.85371474
  445      1      15.20757917       14.96305521       11.82982884
  446      1      11.02794771        9.09679858       12.54180010
  447      1       4.37997713       22.30397287        3.82689163
  448      1       4.93384498        7.04469826        6.04497330
  449      1      24.89701230       19.00823723       24.81200134
  450      1       6.47064990       27.36573748        4.39951382
  451      1       9.39916516       27.40887819       17.74118711
  452      1      27.62405573       26.68788154        4.04391518
  453      1      19.62099926        9.31819993        0.02988589
  454      1       1.97425741       22.87234076        0.56039713
  455      1       5.93059160       10.85986654       19.51088021
  456      1       0.59814871       21.62944704        2.02701368
  457      1      17.31654738       12.01457542       17.34284884
  458      1      11.14188357       24.32130468       13.71553892
  459      1       4.66243170       15.24970275        0.71339970
  460      1      22.08222823        4.05733238       12.36020281
  461      1      18.51559892        6.46193464       13.14344097
  462      1      19.80196645       12.87506248        1.82887040
  463      1       4.28055685       11.47313708       15.70423320
  464      1       5.29725585       27.52047141       24.50294391
  465      1      13.06322692       15.13366605       12.92895960
  466      1      23.13744818       22.76465604       25.13167023
  467      1      17.07119824        9.45710259       11.93827739
  468      1      24.62572298       20.19598987        4.67394564
  469      1      21.85184679        2.63650115       22.70312795
  470      1       7.73146711       16.41626005        7.61943745
  471      1       5.35802400        6.87631874        3.72798830
  472      1      25.65564332       11.69454527       25.07602317
  473      1      22.92824817        1.63711466        4.77879803
  474      1      22.61353282       12.00568177       15.38686930
  475      1      27.58207926       21.92588064       22.99365953
  476      1      11.44347972       21.26800240       25.89240968
  477      1      15.71602939        2.28650662       20.26080430
  478      1       7.71546116       11.45414816       18.11840334
  479      1      22.80304915       12.32227558       27.19596708
  480      1      11.82726562        1.27579879        4.52877155
  481      1      12.19735559        4.58237000        8.35360592
  482      1      22.35528683       19.73851656        5.13099095
  483      1      14.53568501       23.01648862       15.51702197
  484      1       6.74249345       14.45526895       23.63886277
  485      1      17.88600010       19.15485189        1.62225425
  486      1      18.69667712       14.97460833        1.69754918
  487      1      24.69827951       24.97225095        5.95957255
  488      1      19.44492543       22.24219507        2.83393124
  489      1      16.09024223        4.76432801       11.46948434
  490      1       9.28562352       17.15763893       16.83404336
  491      1      12.18905984       15.80366531       15.12427159
  492      1      11.91551870       20.35907921       16.45710070
  493      1      27.20321584       15.74801450       12.99268725
  494      1       3.12886734       23.00251275       15.74336144
  495      1      19.11513260       26.10935456        2.08724525
  496      1      17.88388024       22.72839667       18.66271204
  497      1       0.04084457       16.94028069        8.45942402
  498      1      23.50298820       25.10370631       24.92620297
  499      1      20.16922775       27.11426944       24.64032425
  500      1      24.73581600       15.40421176       15.84850846
  501      1      18.85781173       13.36200383        6.27544604
  502      1       6.39638799       21.99220097        2.41031443
  503      1      18.17042037       14.05381399       23.44489857
  504      1       1.58508749       19.40905697       13.65512574
  505      1      22.33258062        0.31913558       15.35641361
  506      1      18.17590791        5.66998652       15.37090711
  507      1      16.03384675       10.12917906       18.04885119
  508      1      21.95665755        6.79002150        9.61789958
  509      1      12.90346235        9.37579191        2.67611866
  510      1      13.78146922       27.59277607       13.57461522
  511      1       3.03708653       15.59934978        4.18905217
  512      1       2.50203550       16.46163012       16.26492515
  513      1       8.68576495        8.10373424       23.83540584
  514      1       7.94198993       16.84745370       26.26291565
  515      1      17.85954446       26.60178782       22.12952304
  516      1      12.69726803        4.73433786        6.08024610
  517      1      13.19195295       23.71525761        4.66934642
  518      1       7.11180678       20.19015692       22.99400440
  519      1       1.22449939       10.10846481       12.53935317
  520      1       9.99557903        5.54525444       18.07658658
  521      1      18.62046821       25.42844811       25.39391516
  522      1      23.22874850        1.93225136        8.48546280
  523      1       3.91190922        5.54360511       10.21856831
  524      1       3.13950804       15.93678351       22.72855087
  525      1       3.78373490       12.21372512       13.50593074
  526      1      16.34320046       17.28306022       24.60268408
  527      1       2.54421847       26.56821255        0.09631350
  528      1      12.87946651       25.99687875       20.58451594
  529      1      20.83327722       18.36840789       14.36900479
  530      1       3.93822376       21.81812453       27.18327224
  531      1       4.64985402        3.33472911        6.19428640
  532      1      14.84199036        8.23803403       12.18811485
  533      1       7.32733751        7.77856202       18.17872494
  534      1       6.46937242        3.35012638        7.60818011
  535      1       4.90696183        8.19815772       24.41213745
  536      1      14.26082196        3.51793286       16.83998557
  537      1       3.26295104        3.69388683        0.51888565
  538      1      23.74402173        6.79297752        3.01866040
  539      1      18.95278916       21.17189097       17.08660601
  540      1      20.46138571       23.05587685       14.65188739
  541      1      23.67200840        3.78694896       19.39855396
  542      1       1.21045821       23.82712864       20.15089197
  543      1      12.91154014       23.00988177       23.58427929
  544      1      13.35966264       23.61704281       13.42735805
  545      1       2.62805840       25.66374103       20.03247833
  546      1       3.02657424        1.59240632        6.14621227
  547      1      24.72067020       11.74816410       22.88005223
  548      1       7.97320410       18.93026843       19.90830129
  549      1      10.84550719       19.45097239        9.97970021
  550      1       4.69470754       22.19644388       24.88141410
  551      1       3.39521600       12.62972730        6.73726306
  552      1      23.04279692        1.85484493       11.84547277
  553      1      17.61360987        6.37617279        2.49430550
  554      1      18.45181346        3.04058213       17.71885526
  555      1      17.56134887        1.83471919       25.18647672
  556      1       6.79025612        3.23478156       22.25879912
  557      1      18.99259505        1.64524618       27.28551433
  558      1      17.77608353        7.95398421        0.77921530
  559      1      23.13480081       23.24436540       19.29123026
  560      1      22.84185726       25.32240829        2.81720126
  561      1       0.17597479        7.41776245       20.17233591
  562      1       7.73520952        4.75888417        1.45476920
  563      1       0.61592789       23.75936681       12.66508135
  564      1      20.28143684       16.71355441        2.11161451
  565      1       7.49126262       11.53404672       12.10585379
  566      1      26.86551081       24.28484989        6.74109430
  567      1      26.76843850       13.08167242       19.78468732
  568      1       0.85801942        2.15722644        7.19088947
  569      1      17.37868768        3.22373275        7.13478035
  570      1      27.28542261       24.95306368       16.07496534
  571      1      20.90907519       22.03455117       25.59993733
  572      1      13.67527384       14.89825202        6.12038266
  573      1      17.06423400       20.48004875       13.57865856
  574      1      25.50356613        0.25401781       17.54079573
  575      1       2.62389639       26.98607966       22.12781293
  576      1       8.92240053       18.81029624       25.51824795
  577      1       6.27817621       24.41803289        2.39668861
  578      1      13.11598382        7.50868823       17.75733854
  579      1      14.59961149       19.64490448       21.84462782
  580      1      15.72498452        8.57019232       21.97962748
  581      1      27.13983639       21.59986103        9.70607614
  582      1      21.25594941       18.76019760       23.73797817
  583      1      23.29489954       23.78434555        4.49376177
  584      1       6.67393647       21.07466148       20.77721337
  585      1      24.42160580       15.96902005       10.08977022
  586      1      20.65326087        6.86964872       24.81726342
  587      1      14.60544608        1.93920622        9.75925420
  588      1      25.71885559        6.03382910       10.77751515
  589      1      13.56258394        9.83628095       15.13118042
  590      1      17.22860265        4.77149304       22.95384622
  591      1      21.40320573       20.15857894        7.25820501
  592      1      18.65192372       16.82256385       12.05337708
  593      1       4.78207177       14.34186453       13.01883040
  594      1      11.06281088       14.76074748        3.13105893
  595      1      20.91802840       20.32284794        3.22956570
  596      1      17.84792909       27.64680266        0.72570306
  597      1      25.44302969       26.78158704        4.56401183
  598      1       0.24437922        4.94989926       17.65764067
  599      1       7.42265031        4.38753462       14.13136895
  600      1       8.91597889        4.43188526       25.08576227
  601      1       7.55465181       14.22287568        3.05320299
  602      1      11.43775975       16.13109294        8.98926976
  603      1      12.04948938        1.89000739       23.65720975
  604      1      17.57151785        4.22005795       25.19199123
  605      1      13.71794550        6.25503328        9.16977396
  606      1       3.59484940       12.24706638       26.53382860
  607      1      17.62015452        1.61703724       12.39783379
  608      1      27.22367324       17.09305953       18.88200330
  609      1      27.65536284       26.65368533       25.07553795
  610      1      16.22760644        6.92138989       15.94192004
  611      1      25.85714060       26.42777223       21.73820172
  612      1       4.47225705       12.72858856       19.43153122
  613      1      19.49742816        9.27795516       16.58953575
  614      1      25.39266652       23.28529506       20.13978747
  615      1      11.50972149       26.52512164        4.82264318
  616      1      17.96414655       10.49894420        9.91084822
  617      1       2.09244560       19.45739224       25.13158700
  618      1      13.62020093       26.12197605       10.18889387
  619      1       8.98257360       20.82710027        7.36486920
  620      1       1.97701252       19.94433155        7.19955492
  621      1      10.74310151       19.87888488       22.19197514
  622      1       6.85728293       22.83914216       16.96126164
  623      1      11.96846902        9.48595238        7.17585721
  624      1       5.80722626        0.92235284       26.69284971
  625      1      16.77794479       15.92811726       13.29010583
  626      1      15.26317218       11.34858554        7.09322324
  627      1      22.68454408        3.95712549        7.53898792
  628      1       5.80293883        4.28402293        9.63255539
  629      1      15.98562893       16.66978676       20.21120459
  630      1      10.66654226       22.03657643       23.41426404
  631      1      16.16069282       17.69540832        2.22266157
  632      1      20.64569366       13.59211592       19.08199758
  633      1      24.39173767        6.40814136        0.71781091
  634      1       1.10943686       14.50102468       16.84473423
  635      1       1.29615558        2.83980119       24.05313233
  636      1      18.23533514       22.09276583       15.00546880
  637      1      16.91112064       26.44949379       26.65931166
  638      1       5.70015577       17.66521800       26.00307561
  639      1       9.08803248        8.84346632        0.14174174
  640      1      23.62579903       22.08580446        1.15644879
  641      1      27.51626758        3.93852787       25.59517693
  642      1      10.97426993        1.20363149        8.94073259
  643      1       9.18684981       15.11862216        4.53156200
  644      1       4.62670046       20.12243371       20.15042850
  645      1       0.96004665        2.96001120       11.48661937
  646      1      14.49566109       27.13106687       21.88549027
  647      1      19.33123953       13.76510199       25.53499133
  648      1      21.34137189       15.78742276       27.44737572
  649      1      12.32785399       15.24726850       24.87207152
  650      1      21.56087089       18.22246770       16.74232879
  651      1      20.46821024        6.42190869       18.88574714
  652      1      26.80192449        9.59804912       11.59644724
  653      1       5.20505513       14.01399127        9.31210269
  654      1      25.42379404       12.04910788       18.13749763
  655      1       8.06923031       20.87563945        3.64610688
  656      1       2.05445432       12.80995426        2.26844229
  657      1      11.94850386       13.04339397        5.96065741
  658      1       6.68288336       16.06056947        1.84985156
  659      1      26.22676366       20.36619790       26.29161951
  660      1       7.86852701       22.67611478       19.06685269
  661      1      16.25693864        7.56600773       26.65763901
  662      1      19.40144317       18.53381385        3.31188866
  663      1       0.96149433       16.25040165        0.75182724
  664      1       1.08991396       25.41355872       14.24060674
  665      1      17.14034009        9.80034254        2.38614046
  666      1      14.97879025       14.57113786       17.56327794
  667      1      12.01935485       12.62650324        3.60879702
  668      1      13.03307650       19.86001252       13.03036985
  669      1      21.20162330        9.10692010       22.10716823
  670      1      20.82096036        4.91647473        8.67271224
  671      1      24.21417237        7.64563545       19.26753178
  672      1       8.56899305       11.76489405        6.84400861
  673      1       7.52103861       13.63536520       15.30685956
  674      1      16.39519664       27.24394106        7.46839606
  675      1       1.51523368       12.82649260       10.27967526
  676      1      25.64446539       11.53600215       10.82383786
  677      1       8.22029590        4.81776154        7.08159045
  678      1      20.31243186        4.53988154       17.31766854
  679      1      10.44171906       18.61947704        0.96357545
  680      1       1.94969568       22.76037775       22.09067054
  681      1       3.39574152        2.45888096       19.80617560
  682      1      12.64779709        8.61837623        5.02141928
  683      1      19.93025229        1.96579732       21.61502919
  684      1      15.32985576       23.83150067        3.77071102
  685      1      23.44999705        9.77350126       15.90817034
  686      1       2.32833688        8.84519995        3.18049598
  687      1      22.44528607       10.18305620        2.53309357
  688      1       4.27437572       12.32069607       24.33194912
  689      1      20.67101717       26.21194136       12.44814450
  690      1       5.30025244        8.61539573       18.89919025
  691      1      16.91401286       15.42629842       18.48360517
  692      1      20.92522468       10.25350993        7.16083134
  693      1      15.62267312        5.29925674       26.20221858
  694      1      18.97821917       17.82170926        5.71544820
  695      1       1.91980495       25.50070955       25.70349871
  696      1      21.35689458        6.54225317        2.11889140
  697      1      23.54005998        8.17513718       27.10048137
  698      1      19.04919374        0.66027428        5.10371496
  699      1      20.97286332       11.79742814        3.61702748
  700      1      23.56836917        8.38189896       21.66938577
  701      1      21.19496527       27.60504414        5.11205284
  702      1      24.97862682        8.82299497        8.56812792
  703      1      10.72282738       23.11443367       21.05984342
  704      1      10.51744403        6.76711907       12.07337442
  705      1      22.29385047       21.62925270       15.03542839
  706      1      19.28694047       15.85191849       22.04523767
  707      1       0.28150852        3.12848829        3.57052052
  708      1      10.78400763       26.76563051       21.40508202
  709      1      15.09258061       19.36440477       14.33838357
  710      1      16.41462343       27.61679406       20.60795216
  711      1      23.32507528        4.46798145       25.60511439
  712      1      14.51661965       17.40531814        0.42974770
  713      1       8.71624945        0.56414052       24.13342462
  714      1       5.41974295       17.70109972       14.62535296
  715      1       2.48553484        6.49910686       19.97401109
  716      1      16.26905987       20.06804582        9.81748807
  717      1      10.14724373       18.99486867        6.32438596
  718      1       1.18689239       27.64093577       13.49016153
  719      1      11.33390575       10.72021488       25.47012686
  720      1      25.41338425       19.37234029       16.05836579
  721      1       1.98440777       20.02630936       18.05431385
  722      1      19.14245239        2.59657972        3.75568241
  723      1       3.75743977       10.10990082       27.37196141
  724      1      24.10143065        4.80768240        4.15621375
  725      1      12.28955459       11.84089233       27.41033293
  726      1      10.08967158       13.39460064       20.25221785
  727      1      23.32851782        8.85668420        4.23800357
  728      1      13.69420012        1.89998342        5.97028385
  729      1      23.37590814        7.31885038        7.82125494
  730      1       0.14837979       16.06806322       24.38707265
  731      1      26.78945331        2.71670540        5.61174211
  732      1       0.43431071       21.21003455       25.15132943
  733      1      26.27272086        4.40881218       19.37419014
  734      1       7.24358213       17.95287350       17.86270399
  735      1       1.48729148       11.58309455        5.98580743
  736      1      19.21606701        2.20871727       14.25439656
  737      1       7.73160088        1.85413438       20.42376228
  738      1      20.94074781       14.35777767        6.42623171
  739      1      12.87579827       11.55013689        7.49612986
  740      1      13.74067225       18.68449202        7.78589517
  741      1      23.18437742       14.51845670        2.83251813
  742      1      19.16225845       11.55177609       15.98707319
  743      1       8.23737484       13.62657093       18.81977952
  744      1      22.94446241        6.79550536       25.23384279
  745      1       7.07604366       21.81022925       24.68509719
  746      1       3.31062264       21.36075029       10.67636751
  747      1       0.98400286        0.49750018       23.53215899
  748      1       6.07828867        8.75209539        2.52843981
  749      1       5.64944684       17.29206075       10.84938010
  750      1       9.97534616       26.21969196        6.57147527
  751      1      18.45143975       19.41236984        9.39050398
  752      1       9.22903185        1.74073307        0.08682113
  753      1      22.59468540        2.56269092       15.87800527
  754      1       3.79528311       20.28860878       23.86533282
  755      1      15.72898914        3.32873817        5.40021280
  756      1       7.12112365       18.86581645        4.44987384
  757      1      23.14803210       17.06436344       27.11031377
  758      1       3.74395654       20.25451215       12.74512594
  759      1      25.63870560        9.65419160       26.46992332
  760      1       8.79871536        8.96260293        9.38704979
  761      1       0.08451690       17.98297538       12.27929061
  762      1       3.11146904       17.19017807       14.05696439
  763      1      11.00043513       19.70493566       14.40233279
  764      1       7.43544448        1.67292566        3.66800427
  765      1       2.62584227       15.05076434        1.97735576
  766      1       3.74565519       17.75690448        4.15441387
  767      1      19.17052969       18.68209490       19.56364422
  768      1      14.60185603       18.12940489       25.87025334
  769      1      18.60250634       23.01993402       20.86939999
  770      1      17.10150629       16.51899857        6.49074463
  771      1      20.81364592        8.87309732       18.47937793
  772      1      24.63863608       13.06963836       16.09682252
  773      1       8.70436582       23.40266890       24.16665818
  774      1      14.02387469        1.95129299       18.63088516
  775      1      20.15210700        2.67412539        1.52108152
  776      1      10.45927596        7.19264544        9.74140438
  777      1      20.66276491        5.52937520       21.06853253
  778      1      15.65840215        2.87900529       12.86840936
  779      1      13.26634415       11.83743786       11.16120046
  780      1      19.38932122        9.11806374        8.68559834
  781      1       7.39345705       26.94841028       16.25431944
  782      1       4.77395352        7.70547394       10.01590914
  783      1      24.57151633       26.79383922        2.46669506
  784      1       3.66084944        5.99801020        0.50048232
  785      1       3.74989818        5.13733565       23.01989041
  786      1      13.64419502       23.59993006       17.65170535
  787      1       7.19252956        6.92045763        6.80319367
  788      1       9.78188008       13.71507326        6.35071816
  789      1       4.98335505        1.94233772       23.28854606
  790      1      27.25712567        2.15987650       20.35299230
  791      1      22.07136714       15.38921206       10.01795923
  792      1      21.48522753       13.51197862        8.63011919
  793      1       6.54335630       12.03293948       23.65322369
  794      1      23.94773957       12.23289627        5.99123548
  795      1       6.12769720       26.19442674       19.22961355
  796      1      27.52308400       25.03547819        2.41862851
  797      1      25.00875550       15.15960961       12.25279134
  798      1      25.75708519       13.68834984       21.94537036
  799      1      15.14293251       25.40327165        2.14582172
  800      1       4.52671396       14.26124978        5.45614008
  801      1      10.12189024        6.23351074       24.04616356
  802      1      10.68111891        7.48705226        4.35005345
  803      1      26.65500684        6.47594751       16.41908723
  804      1      20.08981887       20.86007099       23.67338612
  805      1       9.44586526       22.98226281       12.91590319
  806      1      21.18606485       23.62642155        5.72004788
  807      1       1.86194849        9.24630265       26.50347836
  808      1      10.75008104        3.42661231       17.70761715
  809      1      21.02372142        3.81326115       14.56635728
  810      1      21.01954255       20.08980065       26.93919980
  811      1      27.59020075        6.29599050        4.89394649
  812      1       8.53822966       17.04526016       21.51567367
  813      1      15.87851195        5.89057004        8.18624144
  814      1      16.53599479       11.83867834       26.77299753
  815      1       8.36118020       14.71023827       25.29434870
  816      1       7.61624689       24.68663625       22.53674579
  817      1      26.44343446        7.88853432       24.86154377
  818      1      14.54158331       10.97012368        0.04259910
  819      1      11.66508710        3.04989462       12.16683793
  820      1      10.83145518       12.38960012       14.42386890
  821      1       1.67745450       18.21353468       19.56712565
  822      1      13.77003945       21.03992872        7.67570681
  823      1       0.80547352       11.32939425       19.99894316
  824      1       0.67214305        3.66770855        9.10956311
  825      1      10.30350886       14.73055065        0.91875944
  826      1      27.34492412       23.89384994        8.98245784
  827      1       6.19376137        5.23894364       15.98211044
  828      1       0.90422655        0.90042916        2.96742165
  829      1       5.92031015        5.63535737       22.10965604
  830      1       8.83224196        9.65589139       11.73614595
  831      1      26.65644353       10.94099460        3.41904221
  832      1      19.58101067       11.25601496        5.44211402
  833      1       2.16420818        5.41866733        8.55321524
  834      1      15.46738942        0.10286980       15.25544753
  835      1       4.16019807        0.92735163       21.39511236
  836      1      25.88538251       12.29057664        1.66290931
  837      1       8.35641563       24.62758610        5.72484358
  838      1       2.68383712        4.44632064       21.04957604
  839      1       8.01397557       24.62195546       15.91437043
  840      1      22.02978587       26.71938980       19.79113818
  841      1      22.25305821       23.18709966       21.46426431
  842      1      10.32728057       15.38264758       21.61208441
  843      1       5.26157941       18.82086761        0.43393381
  844      1      12.28282820       10.21834819       20.46312469
  845      1      24.98564327       15.68685291       26.60284598
  846      1      13.29441603       24.81517957       24.93265588
  847      1       1.98003009        0.74906314       11.32917703
  848      1      24.35467958       15.53490966       22.74763360
  849      1       5.82594927       23.26693421       12.80918221
  850      1      19.27662460        8.63893004       12.67566170
  851      1      17.50039669       21.45477557        1.79143125
  852      1      15.65316002        2.52468348       15.20981427
  853      1      16.73798669       10.70069427       24.63813171
  854      1      15.30557470       13.22075991        5.55836397
  855      1      11.67401236        2.36098579       19.62121466
  856      1      11.44233871       22.58395625       17.28996263
  857      1       1.96452518        8.42407315       14.12031779
  858      1      23.21304532        0.77744528       22.88886666
  859      1       6.82399022       21.07377973       15.42609100
  860      1       9.02333440        4.32747389        5.01011207
  861      1      10.44206161       24.39100695       15.98003237
  862      1       3.32942376        5.24996961        6.37747087
  863      1      14.27579211        1.51109966       23.21765222
  864      1      20.28012865       10.25940041       20.31338928
  865      1      18.52816096       12.42468529       13.77291776
  866      1      27.23698320       26.31985642       17.94888397
  867      1       6.81931081        8.19257921        0.34105845
  868      1      11.05356227        5.25357394        4.50144967
  869      1      22.77338984        0.28422188       27.17238991
  870      1      23.66553093       17.02672700       17.24442233
  871      1      20.99041255        4.69697676        0.57166397
  872      1       5.26458581        8.63881190       12.09265559
  873      1      25.08818232       10.12711231       21.32362571
  874      1      13.90326253       16.41385605       16.60779159
  875      1       3.35046383       16.99271084       10.25455194
  876      1       4.43734127       15.22939916       16.77505532
  877      1      21.84925167       13.81834805        0.96234086
  878      1       2.90215295        0.88948522       14.86838861
  879      1       3.16231026        6.61128880        2.80827145
  880      1      26.14210160       27.61782073        9.29182104
  881      1       6.70617937       11.33262764       15.95052816
  882      1      15.09624484       18.45222222        4.21200931
  883      1      23.06894366        9.34412058       18.17878622
  884      1      13.79285530        5.82615129        1.93747348
  885      1       5.02685596       26.38811114       10.81415676
  886      1       2.77340175        7.05745518       24.09675824
  887      1       0.44753986       27.64934346        7.95349136
  888      1       1.92260039       24.56083906        9.21635027
  889      1      18.80137064       17.18406948        9.74691743
  890      1      22.46225644       16.69319777        3.01101223
  891      1       1.54539617       15.54077542       26.29744363
  892      1      12.28485009       16.63836530       21.00306536
  893      1      13.59337875       21.87151671       11.81879623
  894      1      25.94729665       25.74598544        0.60137879
  895      1      12.17919252       27.19121391       27.41396759
  896      1       2.83112121       13.81012413        8.68119334
  897      1      19.41223215       26.23042091       14.56448255
  898      1       2.94473439        8.87681781        9.05249644
  899      1      22.83172217        4.41189741       21.50902502
  900      1      25.10110646       26.52697711       13.46781575
  901      1      17.56159036        7.24313149       22.90441449
  902      1      20.81545179       23.86126601       12.47661262
  903      1      17.05959002       25.94727777       14.50619022
  904      1      26.69567269        5.99954326        0.90536013
  905      1      17.75229556       14.40008653       14.76504333
  906      1      14.25240226        8.76880170       27.01589400
  907      1      17.09222561       26.90159386       18.37706298
  908      1      23.94381004       27.59595724       20.83288699
  909      1       0.63320450        2.79819921       16.86507530
  910      1      11.29726235       26.49984367       16.64591664
  911      1       9.61806050       26.09456031        2.11341107
  912      1      26.70105994        7.95140101        9.89480040
  913      1       5.97234017        2.51781065       10.97033528
  914      1      20.41403987        7.89918330       14.97636370
  915      1      22.08724793       26.45178402       23.58070838
  916      1       6.75637408       11.33134031        5.40063749
  917      1      24.62652911       22.16651731        3.31050268
  918      1      22.22733771       20.21044580        1.29151663
  919      1      26.67503756       10.12739767       17.34488328
  920      1       5.40827142        7.36844681       15.51588064
  921      1      11.31663299       12.12015060       23.54956766
  922      1       8.88544616       20.91385859       13.98805027
  923      1      13.58366165        5.26016191       22.62375302
  924      1      17.53203667        8.51891381       24.92300068
  925      1      17.29636156       24.50508039        5.14126560
  926      1      26.10297442       15.00566961        8.64304711
  927      1       5.67435770       18.81826672       12.60280420
  928      1      11.63810865       27.66009036       14.47883707
  929      1      16.42944955       12.06616230        9.02371899
  930      1      13.65711211        1.26835092       26.74311665
  931      1      17.74734249       19.26957918       17.69516348
  932      1      19.54530024        0.98576128        9.25232210
  933      1       3.41462262       13.06933150       17.27966508
  934      1      20.01309101        4.40811773        4.94408377
  935      1       2.33175026       26.93793153        9.22302474
  936      1      21.00756992       15.73106585       20.17110267
  937      1      15.44516608        7.28030162        3.07023806
  938      1      14.89980073       10.62751554        2.31320188
  939      1      22.40023830       11.97517979       12.93642184
  940      1      14.67290846       11.84138572       14.42369639
  941      1       8.13183462       22.20894947        5.60703147
  942      1      15.75738885       17.21389382       15.15634431
  943      1       5.70258026       21.98727733        5.78919110
  944      1      12.64175969        7.82362014       19.99778839
  945      1      12.23682116        2.13386807        2.36538010
  946      1      25.98604085        4.16717885        9.39241496
  947      1      15.45271888        0.52423701       25.32126623
  948      1      12.49235827        8.26634636        9.17293873
  949      1      15.54416686       22.31001356       18.75626007
  950      1      21.39804184        3.22930588       24.95596398
  951      1      25.29078123       20.72283003        8.55102257
  952      1      10.34566479       21.67843961        9.23935133
  953      1       8.70385643        9.51144158       21.83419395
  954      1      17.99331016        7.44450325        7.43846194
  955      1       9.94135993        2.74307957       10.36842511
  956      1      23.43673134        8.07674983       12.72474902
  957      1      21.04544123       15.20735751       25.17753915
  958      1      13.46998433       21.71174313       27.03103746
  959      1      13.62703880       24.42419167        8.60312180
  960      1      15.15060524       15.97214229        9.72200048
  961      1       9.61915945       13.40836890        9.94998281
  962      1      21.03607956       17.12588627        8.89640763
  963      1      26.43218577        2.46527769       12.37030341
  964      1       6.09113213       27.13753006        6.83077156
  965      1       8.57440916       14.69786966       11.74306448
  966      1       8.02689429       20.88599200       26.59360434
  967      1       7.38049871        8.94236842       15.43319299
  968      1      18.35465975       11.28294301        0.72862876
  969      1       4.56382112        7.50002459       20.78673973
  970      1      11.75673619       13.22648403       18.53392024
  971      1      26.35172765       21.23543098       19.55129517
  972      1       0.34845303        8.09814627        6.40548641
  973      1      18.35367696       11.69574684       23.11581419
  974      1       4.59009233       22.95999226       17.65152577
  975      1      11.23618894       10.05142636       14.66478320
  976      1      25.12069890        1.51080535       24.07064688
  977      1      19.19821258       22.76644935       11.14153615
  978      1      26.13820042       12.18050244       14.38140559
  979      1      17.12387062       27.19676227       11.20733595
  980      1       0.97570827        0.68658919        0.58699929
  981      1      14.16662202       11.63431909       20.74811041
  982      1      23.28834771       25.90918011        7.61471249
  983      1      15.18160341        3.48705184       22.28156746
  984      1      24.24150809       13.50468003       25.83629941
  985      1      12.84943178       17.41264534       18.67581924
  986      1      25.85737586        4.86638648        5.67605486
  987      1      14.85098423        5.81332831       17.47805875
  988      1      11.55010675       19.84151988        4.62739060
  989      1       3.58256752        3.27217690        2.91373265
  990      1       8.59443293       17.32510439        5.55881715
  991      1      25.78336258       13.62099292        6.48625654
  992      1       3.97451248       23.67069342       23.16140031
  993      1      17.66048692       16.97655966       16.75680794
  994      1      13.28846577       25.49605126        6.28046949
  995      1      22.33729873       13.35489653        4.70917598
  996      1      24.35343105       18.58463355       13.91303159
  997      1      19.23837612       25.26184357       20.88523578
  998      1      12.25900287        5.33575220       12.53923547
  999      1      14.30883010        2.16922335        1.08223576
 1000      1      18.04020542        9.64443559        4.67627061
