run_id:  1021
total_energy:   -3029.8403849189453
  1000 atoms
  1 atom types
  0.0   27.664  xlo xhi
  0.0   27.664  ylo yhi
  0.0   27.664  zlo zhi

 Atoms

    0      1       0.01675526       18.72726468        6.76304097
    1      1      14.71732083       18.60788454       19.60126089
    2      1      19.83129297       15.23666464       15.87785399
    3      1      17.39671307        8.35040124       17.17196708
    4      1      12.88338416       12.81300742       13.34354436
    5      1       8.84404710       16.66256920        0.72001069
    6      1      13.87861304       23.99717625       26.97924214
    7      1      24.72933216       22.88893302       12.51920835
    8      1       0.65160200       25.99505161        6.13529049
    9      1      26.76368928       27.53575160       27.08847985
   10      1      26.26740797       24.03124811       26.52646128
   11      1      24.69235884       12.82110255       12.63772828
   12      1      12.01563301       16.23324168       11.53573275
   13      1       8.77312191        2.82910603       23.39811546
   14      1      22.31345930       12.21583184       22.83240661
   15      1      16.03211243       21.61588494        8.00972200
   16      1      22.72235370       17.42363440        5.21868268
   17      1       5.64027101        9.39030759       26.31642991
   18      1      24.99762921       10.28449243        5.06586992
   19      1       8.64461497       12.93393420        1.25268003
   20      1      25.64367542       18.09093520        1.77197685
   21      1       2.97945334       23.61804494        7.22808302
   22      1       4.98142186        2.30679776       17.97189462
   23      1      10.41539103       14.37746655       23.85505229
   24      1       0.44816401       14.88591834       19.02476604
   25      1      27.42815031        9.48467356       21.18804021
   26      1      12.91521441       18.21791820        3.58599013
   27      1      22.31214940       19.09975732        9.29794122
   28      1      17.71780913        3.24899295       15.57946949
   29      1      27.30213276       22.36009186        5.61844321
   30      1       4.79938262       21.71273732       14.27020278
   31      1      16.70883283       18.84228583       22.84063677
   32      1      16.95104366        2.94365013        3.36478762
   33      1       9.79631332       16.63264153       12.29953741
   34      1       8.21077051        6.08703393       12.55871837
   35      1      15.74345699       27.20491162        3.59498512
   36      1      10.63105583        6.58848677       20.12906558
   37      1       7.06817930       26.92301231       23.02474997
   38      1      21.88556983        2.74958606       18.08782911
   39      1      10.72471480        0.54022597        1.30337408
   40      1      10.81077659        7.15239616        0.00636591
   41      1      10.62940633       25.34005443        8.66317575
   42      1       4.49064473        0.64229819       11.52113769
   43      1       8.94341034       18.80043776       23.15580140
   44      1       1.36261901       13.16127779       26.40883029
   45      1      23.73308757       10.99684079       19.49445677
   46      1      14.35996644        7.66072432       14.49407948
   47      1       6.62036722        4.99861636       25.71356421
   48      1      15.00038064       20.38986797       25.90312243
   49      1       9.76120889        4.83557516        8.99067524
   50      1       1.39265646       18.51337432        1.04843041
   51      1       7.37242057        2.40564543        1.31297234
   52      1      24.53579183       19.93091350       22.67623274
   53      1       0.15940830       21.43959754       13.45334927
   54      1       6.88220308       21.88824387       11.08175755
   55      1       4.66512217       24.46175030       19.59224757
   56      1       1.88311696       18.82626969        3.32772639
   57      1       5.70649012       11.81978487        9.31992051
   58      1      27.15764364       11.72979084        7.33503733
   59      1      23.35257892        4.41476773        0.21468299
   60      1       2.38766582        3.04397238       15.25637941
   61      1      18.80293480        0.72965049       23.31478932
   62      1       8.07720729       11.73437691        9.30168778
   63      1       5.42098614       27.55902112       17.40169066
   64      1      20.48182958       21.77707588       21.55252767
   65      1       7.07764180        5.12845917        3.63794064
   66      1      15.98769216       13.21541416       15.97720667
   67      1      24.45100457        7.22190940       23.55227124
   68      1       0.20049242       12.28358273       24.60016780
   69      1       7.16105641        2.98280111       18.45115744
   70      1      10.42281721       17.35460820       14.61751093
   71      1      13.74448603        9.70825536       17.37814098
   72      1      13.31587137       21.12331017        1.53651008
   73      1      24.86193848        3.52260514       14.77120506
   74      1      26.34977973        1.83348531       15.78327189
   75      1       2.69556889       10.70354174       10.62550165
   76      1       2.59399873       23.50823199       11.20202218
   77      1       7.74140558       19.95793538       12.17026414
   78      1       3.86677731       16.89865448        7.63735036
   79      1      23.71755022       26.57926658       16.60581422
   80      1       6.98471631        7.53440105        9.06131194
   81      1      18.81934963        4.00535227       21.37657406
   82      1      11.05214902       18.98842248       26.23737660
   83      1      14.74987119       27.42541870        5.80859580
   84      1       0.77804106       21.90347834       18.54718399
   85      1       5.68431406       17.98732981        2.72254098
   86      1      26.86444262       25.12685827       19.91421966
   87      1       9.59782574       14.98266379        8.00837889
   88      1      25.29457214        3.78711632       24.48333793
   89      1      24.21934045        5.80055896       15.85466147
   90      1      11.76836942        4.51338561        2.44439664
   91      1       0.51669827       12.56710950       15.55888966
   92      1      20.00333993        0.46644944       15.61828771
   93      1      16.11615893       10.25082939       20.36414304
   94      1      22.83907775       14.21358647       24.05469635
   95      1      17.76415387       20.82813533       23.70509513
   96      1      10.16177014       19.79315311       19.79871798
   97      1      12.96747725        9.46986442       11.26344584
   98      1      25.49978868       10.07265124       15.25760786
   99      1      27.53779011        6.22645787       26.30328630
  100      1      22.75027482       11.60327746        8.02185744
  101      1      15.04687767       26.04748901       23.98935101
  102      1       9.04554845       14.66320948       16.88116372
  103      1      18.93560637       22.90701180        5.01429808
  104      1      17.89687124       26.51738710        4.09589455
  105      1       2.91886442       25.43715677        5.81159559
  106      1       9.69532469       10.01183966       18.15791894
  107      1      11.20404150        5.35202535       22.13850847
  108      1      23.79080355        1.42882801        2.61000029
  109      1      16.05840280       24.52977657       27.65228220
  110      1      13.88809903       13.62914024       19.50691082
  111      1       1.79969620       15.74881548        7.48510772
  112      1      11.09400182        6.91898205       16.53503297
  113      1      12.86377601        7.76212535        0.99634733
  114      1      23.73310627       24.39350827        9.51776982
  115      1      17.10084618       14.59087035        5.23076706
  116      1      19.85701349        4.87614217       25.94513937
  117      1       8.65636559        2.37923482       14.72906921
  118      1      18.92667116       19.04175531       12.97205233
  119      1       8.88911645        2.12084856       17.06558793
  120      1      12.54404538        5.88713297       14.82565206
  121      1      18.14501153       15.15797358       27.07729883
  122      1      26.94625666       14.25569537        4.58542116
  123      1       5.91185723       19.25181793       16.51412911
  124      1      14.47640886        6.79546687       21.05828865
  125      1       2.64156124       12.33681000       20.87783313
  126      1      19.63805108        6.30331651        3.74343548
  127      1      11.16793685       13.91629069       16.31999320
  128      1      20.90404233       16.66865263        6.54981333
  129      1      14.97802966       22.22937086       20.94080969
  130      1       5.03654352       11.03517708        7.10277592
  131      1      14.89467299       17.26005341        6.20408833
  132      1      25.04227873       25.13840078       15.29212498
  133      1      16.89506980       22.75346158       22.47072275
  134      1       5.22621626       23.16813435        7.69023368
  135      1       6.07463679       21.00342814        0.33730324
  136      1       9.50305227        2.01843194        4.98660384
  137      1       3.02598392       19.46190042       27.31323200
  138      1       6.15146336       15.06748550       11.29002086
  139      1      12.93781987       15.87578330        3.72692937
  140      1       9.61268539       24.49387116       26.11253845
  141      1      26.82789030        0.62980042       13.78577046
  142      1       9.16355879        9.69170895       25.61433886
  143      1       3.88276088        9.02567860        6.88623919
  144      1      16.95934532       23.50359137       11.04319858
  145      1      21.61449589        8.59553648        1.02448069
  146      1       1.82997383       21.84667293        5.99497746
  147      1      11.42985903       26.89989960       10.27345374
  148      1      13.74048071        1.84360421       11.99999958
  149      1       7.34881354        1.16955786        7.92853375
  150      1       0.39428896       12.14439823        0.59613043
  151      1       0.09468024        9.14337929        2.40181022
  152      1      15.45633139       20.64129181        4.73911966
  153      1       7.80040715       25.62389555        3.66445807
  154      1      14.09636660       14.38948466       23.39737101
  155      1      24.83335118       17.62085996       19.26389715
  156      1       2.08664436       24.89386426        1.72232281
  157      1       8.72026127        8.30646982        5.47422732
  158      1       1.18761570       14.20325964       12.06359185
  159      1       2.12353738        6.89569760       26.38091203
  160      1       4.29701826       20.57419747       17.90349121
  161      1       5.55457483       16.40213239       18.50395054
  162      1       5.05335142        1.12753981       13.79791353
  163      1      27.45966038        7.09284043       14.33292995
  164      1      12.82983095       15.10303978        9.58315221
  165      1      19.44295337       23.58646936       26.70463222
  166      1       6.02899407       15.21124590       15.05192734
  167      1      11.07603823       18.62957253       17.93717626
  168      1      14.69367978       18.30206261        9.85421005
  169      1      26.60851684        7.23825900        3.02394543
  170      1      11.51514316       24.52659457        2.76360052
  171      1      20.61827559       15.34215659       12.06450111
  172      1       7.48351515       17.93875821        9.28639500
  173      1       1.75778728       14.47102996       21.27757009
  174      1      16.30212898        9.23842511        6.32972220
  175      1       2.25102819       21.12240805        3.72512280
  176      1      18.08370381       13.56293810        8.55447255
  177      1      25.75320405       23.31278908       22.58537950
  178      1      11.55568043       18.20419290        7.92854196
  179      1      25.55958839       18.06047800        4.05365491
  180      1       8.28032601       25.22934824       19.00522179
  181      1      22.67870046       20.99737758       18.73915965
  182      1      15.40570143       21.77137643        2.74306002
  183      1      21.13847680       26.87377574        2.93991028
  184      1      24.98185371        1.47460272       19.38930539
  185      1      21.90533613        8.32845981        6.16027492
  186      1       0.85128718       23.34801468       26.25418359
  187      1      12.60183475       18.44600135       22.56122261
  188      1      17.46264041       22.59907189       27.39564241
  189      1      14.90484409        5.56614216        6.08927029
  190      1      14.19972575       25.59649762       12.39614377
  191      1      10.81085771        3.09013459       22.01323282
  192      1      25.76514488       25.25910831       24.07412926
  193      1      21.81671859        0.98063530        1.61779467
  194      1      10.26483530        3.55234130       26.74255605
  195      1      18.06597437       24.75135455       17.51083813
  196      1      21.34783905       20.63950570       16.93649670
  197      1      16.46260753       25.42755072       12.34393991
  198      1       3.39594094       26.87662532       16.44155677
  199      1       0.93668846       17.95914185       10.30509699
  200      1       3.99152776       15.94405406       26.19117472
  201      1      16.02434855        5.79792768       19.41623819
  202      1      21.95586300       20.54200117       11.22922408
  203      1       3.76003099       24.85003192        3.49525322
  204      1      18.28294992        5.70149304       12.34466886
  205      1       9.14486449       10.58849754        1.87445377
  206      1      26.80815004        5.51263824       21.30395147
  207      1      26.27192416        7.92239302       18.30945101
  208      1      26.88314703        4.88096556       13.20709974
  209      1      12.94112623        8.99171028       25.12023139
  210      1       4.70402859        9.28126084       22.36117981
  211      1      24.80753109       22.19813364       26.74857781
  212      1       0.17944554       17.85396226        4.67955793
  213      1      23.22364723       16.68858710       20.94668849
  214      1      13.19641376       25.92779666       18.13279837
  215      1      14.17539837       15.29354152       21.18785049
  216      1      26.26541280       15.96320347        0.97895543
  217      1       4.87406875        3.18820672       26.42209848
  218      1       3.82137182       18.65629471        6.22991577
  219      1      20.49268640       10.71434323       23.79599782
  220      1       9.91660339       22.37145270       27.23581421
  221      1      11.38978836       26.01926458       25.47609861
  222      1       1.72363429       12.37796370       13.53018348
  223      1       9.78745897        8.86874184       16.12656228
  224      1      17.30241144        3.80508421       19.58830768
  225      1      16.55757375       11.39576127       12.93416873
  226      1      25.54021662       14.38947884        2.59248171
  227      1       6.15004938        5.97307765        0.13444630
  228      1      13.66324155       12.07530688       23.00461473
  229      1      26.75138447       20.19828003       21.60543730
  230      1       7.61350907        5.61117774       10.27886658
  231      1      22.39530912       19.85064532       13.52681969
  232      1       4.38709292       12.16235029        2.33398991
  233      1       1.15469067       19.02492122       21.60354447
  234      1      21.34336699       16.11681834       14.11342803
  235      1       1.79335280       27.04340881       18.22690732
  236      1      17.07039608       24.93360499       23.60572430
  237      1      20.07326502       24.01991725        1.28543117
  238      1      14.19980945        6.10160913       11.44725696
  239      1      22.26262084       25.20492851       17.92564288
  240      1      14.67537640        9.97011426       23.69284062
  241      1      19.52080569        7.84167236        5.41373001
  242      1       5.42849324       18.69833205       23.73418557
  243      1      24.85890456        2.74216777        0.90464964
  244      1      12.03706909       12.85530190        9.60363534
  245      1       6.87974387       24.95272185        7.54076745
  246      1      19.00116579        5.07253156        7.13983207
  247      1      12.16063277        3.66134232       15.84117109
  248      1      22.52337191        9.81182755       11.62003460
  249      1       1.60758672       18.61848583       15.93313175
  250      1      16.08826714       14.16482940       26.59570373
  251      1       3.00556262        1.14730929        3.77554536
  252      1       5.17219248       13.10372733        0.26034107
  253      1       5.75076539       23.46914035       21.52010055
  254      1      11.83782217        6.85049549       25.48824552
  255      1       0.99539768       15.75154139        5.22388724
  256      1      24.26700576        0.27953024        7.88796926
  257      1      24.64359707        5.17016748        7.77678002
  258      1      15.46891762       27.57549879        9.58416399
  259      1      23.38755773       18.14747102        1.42786216
  260      1      21.20461246       19.96497434       20.30638599
  261      1      25.55499862       16.70099392       24.53956037
  262      1      24.91660097        1.26192923       26.64582731
  263      1      19.96675881       16.88806091       24.08237027
  264      1      12.83556295       18.76051858        1.40763082
  265      1      17.49226725       21.22117551        6.11270290
  266      1       7.55106368       26.63420362       10.77406497
  267      1       9.36831176       24.98720390       21.05367102
  268      1       6.97328707       19.92435439        8.22005753
  269      1       5.42882742       21.46576072        9.35396030
  270      1      16.36241622        3.66380939        9.44553516
  271      1       4.91809390       11.02644699       11.70899160
  272      1      21.79917377       11.99950941       20.42196877
  273      1      15.99006065       21.49331363       11.68698191
  274      1       0.01892707        9.82837739        0.12464479
  275      1      22.25995812        3.78881943        5.49239147
  276      1      17.81272407        7.26621861       19.17906981
  277      1       4.89456650       17.15688077       21.98459552
  278      1       8.92299838       22.89960248       10.56226081
  279      1      20.26167878       24.80662657       16.37727865
  280      1       9.60221353        9.66748511        7.16582832
  281      1      26.77850322        0.83377529       22.32378224
  282      1       2.00448345        4.97707075        4.27672292
  283      1      20.92510657        1.13800115       26.03368563
  284      1       2.60425146        5.85714983       17.64560687
  285      1      22.79369590        7.68925661       14.82852956
  286      1      15.50447959       12.60660463       11.19912485
  287      1       4.38810789       14.68923180       24.25565099
  288      1       1.45262102       10.29510008       24.31076689
  289      1      21.45089067       25.37829331       21.60955885
  290      1      10.39754777       11.23431630       21.57642780
  291      1       4.08463846        4.09816232       16.61983926
  292      1       2.88962556       20.63335977       21.71643761
  293      1      23.46258082       25.70913627       27.19562266
  294      1      20.70071495        1.02508989       19.44554233
  295      1       0.12029519       14.07937941       23.00613275
  296      1      17.89541249       17.57345566       21.25475309
  297      1      14.29037913       15.04062035        0.24051774
  298      1       0.55840557        8.43950784       23.32001109
  299      1       4.78821313       27.08299801        0.59424173
  300      1      19.39303145       25.40055956        8.36240437
  301      1      14.64296388       14.68221548        2.49292288
  302      1       7.24143676       11.04931095       25.64702990
  303      1      17.23730575        4.38191073        1.58343874
  304      1      19.97012709        7.16430979       22.63390813
  305      1      16.82041994       23.90317870       15.60223631
  306      1       4.08430822        9.91434836        2.03945958
  307      1       1.52809017       20.19772179        9.53446763
  308      1       9.46852130        0.83522726        7.07431188
  309      1      24.92224470        1.07778627        5.81807024
  310      1      20.17816779       16.97386765       18.23602363
  311      1       0.96581609        2.99373971       27.62855731
  312      1       3.11601525       10.98086843       22.78254686
  313      1      23.80828513       22.18023274       22.99396974
  314      1       1.37895579        1.64792027       18.75698760
  315      1      14.88967661       27.49719630       17.57537467
  316      1      13.24924657       21.45673705        5.42650025
  317      1      25.52007701       19.00289806       11.99303666
  318      1      24.58403301       18.45805377        9.80717610
  319      1       4.25491395       24.72160193       12.37888276
  320      1       7.76244700       24.31649268       13.63906601
  321      1      12.54624972       17.65376531       24.85211094
  322      1       2.03750136        9.35174940        5.53294769
  323      1      20.29074032       13.00572744       12.27040838
  324      1       9.91332861        0.72772071       19.94532505
  325      1      23.94675425       22.62669165        8.02305758
  326      1       8.34230123       26.44803794       12.86457962
  327      1      23.44872126        5.99161314       11.51845222
  328      1      14.79923338        7.74806600        5.25791891
  329      1      21.66426890       22.35282770        7.60234762
  330      1      23.71842872       16.28611729       13.96870176
  331      1       3.78543014        5.20005594       12.56399498
  332      1      22.60245483       18.77594968       21.81868434
  333      1       0.68035986        3.78516113       21.90300339
  334      1      10.99472193        2.23974471       14.27121903
  335      1      26.20053807       21.19430991       11.83948097
  336      1      19.62755646       20.47925906       11.18970457
  337      1      24.85524730        5.17908395       22.61401533
  338      1      19.88297542        4.36116039       11.02168942
  339      1      19.06143773       19.70838718        7.09806927
  340      1       8.80010036       13.05485409       13.38135347
  341      1      11.43809438       11.06028883        1.93544682
  342      1      18.73688807       19.17728525       27.05184445
  343      1      26.90199553       15.79904782       15.42545979
  344      1       3.54399372       25.85521603       23.96950373
  345      1      10.11724221       21.99859782       19.15396921
  346      1      24.08389199       10.91813220        0.85498755
  347      1      13.47778557        5.13334678       25.09165152
  348      1      25.88590336        8.62700859       13.46643279
  349      1      26.23234121        9.57487907        6.91945125
  350      1      18.21956330        1.13055299        7.27201943
  351      1      26.84162779       22.91286758        3.33755240
  352      1       8.10292047        0.30084757       26.40348525
  353      1      12.93254142        2.31614778        8.26330506
  354      1      19.75388385        8.98000531       25.47902986
  355      1      16.12108990       14.90914030       24.34642651
  356      1      19.73090917       12.44745787       10.01934145
  357      1      18.21138177       13.27072247       19.20007349
  358      1      22.64454450       18.80696877       25.63150778
  359      1      25.85328509       25.27241877        9.97763010
  360      1      15.11327531        4.40135852        0.68013802
  361      1      12.37197827        3.04489016       25.70193026
  362      1      10.17218457       20.42969624        2.71970855
  363      1      26.13531513       24.73640166       12.13485685
  364      1      16.18150762        1.16379815        2.09127410
  365      1      19.00209420        0.78705019       17.81505621
  366      1       6.61919159        6.74562049       24.02552965
  367      1       6.66991404       15.71598389       21.71516886
  368      1       8.38808683       25.88573601       27.56005319
  369      1      15.57888505       20.09469140       18.02626317
  370      1      10.85234080       27.50019484       23.69261910
  371      1      26.95262532        3.73423550        1.47528460
  372      1      23.17232120        5.73983529       17.99162556
  373      1      14.33440534       12.64638664        3.51107330
  374      1      16.81068899       15.46931746        2.99381165
  375      1       6.24296735       14.51836312       19.73639692
  376      1      26.12486498       20.47054946        6.44494168
  377      1       9.04271372        8.35888869       19.79705185
  378      1       3.94923241        7.36472348       13.58767604
  379      1      27.01257842       12.78702940        9.47165048
  380      1      24.77636293       19.92902206       18.40123554
  381      1      12.73741799       22.29913729        9.46370349
  382      1      13.04998162       23.70030406       21.27555366
  383      1      23.91166412       10.48596750        9.79399983
  384      1      18.12634384       11.36746331       20.79179091
  385      1      14.31334939       20.61413945       16.09150451
  386      1       5.85966923       19.69710969        6.18496187
  387      1      27.06425558       19.76675186        0.82416449
  388      1       4.17518821       17.78205245       19.89293803
  389      1       1.03645023       10.94120542       17.29730554
  390      1      11.12420134       22.31175854        1.71687257
  391      1       1.60459133       17.63090821       23.49083992
  392      1       3.74754279       27.24746602        7.14936523
  393      1      26.44123420       21.52551258       15.37390263
  394      1       7.36813581        0.43166899       14.26397301
  395      1       4.54583330       27.17847694        3.05264332
  396      1       5.49356794        3.50415048       13.09394262
  397      1       5.63825975       15.35843689        7.30551546
  398      1       6.31302555        0.04420971       20.90463799
  399      1      27.17628973       17.83075076       16.51014660
  400      1       9.07097966       18.42554362       10.93755022
  401      1       7.88335463        1.28061798       10.23302373
  402      1       1.79812831        4.16502185       13.19582806
  403      1       5.67797807        3.31764029        4.07759857
  404      1       7.40117179        8.26433320       13.03630469
  405      1       1.05508036        7.47778554        8.68114635
  406      1       2.71990816        9.71143994       16.09346788
  407      1      25.28088866        2.22155910       10.44270246
  408      1      19.30528638       26.73203438       10.35910781
  409      1      18.39192205        2.69002037       10.48012633
  410      1       7.55752449        5.38536613       17.90176286
  411      1      18.33779267       17.21058178       25.82107526
  412      1      11.86787177       10.87552037       18.36134076
  413      1       6.16343238       25.19163308        0.23174275
  414      1      14.52075374       21.29940803       23.83993828
  415      1       2.52590130       16.17913292       11.41330260
  416      1      12.21492977       14.23975226       27.11270043
  417      1      21.62298090        1.51951013       10.69296299
  418      1      22.91907212        0.01226067       12.94921052
  419      1      10.68428715       26.42243359       12.68394914
  420      1       6.60549274       10.52905347       21.77496895
  421      1       0.60627385       12.42924749        4.10464681
  422      1       7.73557953        9.77033399        3.81538301
  423      1      19.91664397       23.25044609        8.94946666
  424      1      20.70500926        8.44759424       10.67997961
  425      1      22.41322457       24.12829325        0.98915727
  426      1      17.27127428       20.76101871       26.00257012
  427      1      12.77777291       18.44508291       11.18996476
  428      1       3.37562366       25.04701438       14.76110000
  429      1       5.83449805       12.98505440        4.02587169
  430      1       7.40206735       13.01139683       26.94455434
  431      1      24.48469439       22.82070491       14.83735259
  432      1      22.71214162       22.92406025       11.30791502
  433      1       3.56424733        3.31540774       24.40095634
  434      1       0.63046380       22.78984328       16.42005895
  435      1      21.11756794       25.78188383        6.73080442
  436      1       8.42975752       24.93253220        9.40730553
  437      1      15.99272081       23.79596612        8.81835040
  438      1      12.98271851       25.39898878        1.11194786
  439      1      20.71861401       13.12331548       16.68789942
  440      1       3.82091936        7.95274696       17.15039183
  441      1      17.25264313       25.18530302        7.42693874
  442      1      17.26814611       15.77026261        8.70834085
  443      1      10.10389844        5.08162370        0.85726395
  444      1      15.32456904       14.91680109       11.94358735
  445      1      11.01166668        9.07594911       12.57135377
  446      1       4.37389306       22.29833448        3.82947389
  447      1       4.93120527        7.04192561        6.04141503
  448      1      24.89978772       19.00120241       24.80511362
  449      1       6.46084088       27.35784575        4.40258714
  450      1       9.41167495       27.39152451       17.74127600
  451      1      27.57094934       26.69719890        4.07609904
  452      1      19.61265021        9.31573475        0.08011167
  453      1       1.95525999       22.87838097        0.56060043
  454      1       5.93443199       10.84771860       19.51481121
  455      1       0.57813205       21.62746916        2.02230147
  456      1      17.32550747       11.95577886       17.35438450
  457      1      11.18687458       24.29332376       13.71503784
  458      1       4.62861646       15.22891012        0.67557351
  459      1      22.03571572        3.98495332       12.18021735
  460      1      20.13765397        5.58299768       15.39019905
  461      1      19.79656004       12.86758259        1.86287899
  462      1       4.36411777       11.51960849       15.75656039
  463      1       5.28269174       27.52307337       24.48472580
  464      1      13.22326878       15.10199006       13.16450597
  465      1      23.14599817       22.77852404       25.12889293
  466      1      17.09052844        9.27641361       11.96247771
  467      1      24.61310653       20.18590749        4.67729828
  468      1      21.86534444        2.64824085       22.69280433
  469      1       7.79438484       16.42035275        7.51128510
  470      1       5.33961014        6.86503079        3.72224219
  471      1      25.63085562       11.66667998       25.05432152
  472      1      22.88249978        1.63911855        4.86060587
  473      1      22.48015576       11.98208697       15.41245756
  474      1      27.58897535       21.93303666       22.97343291
  475      1      11.44680229       21.27231476       25.88371959
  476      1      15.72582753        2.27620802       20.25895673
  477      1       7.74137530       11.43533133       18.15647368
  478      1      22.79163499       12.30361963       27.21359069
  479      1      11.83265000        1.29871934        4.53158068
  480      1      12.20034568        4.61609683        8.36588201
  481      1      22.34732712       19.72754363        5.13386010
  482      1      14.56998929       23.01554712       15.51036910
  483      1       6.72388075       14.43342450       23.62846681
  484      1      17.88827182       19.15573903        1.62541353
  485      1      18.68819353       14.96630917        1.72582088
  486      1      24.66362220       24.99019363        6.03669575
  487      1      19.44598768       22.24880495        2.84237517
  488      1      16.11409442        4.84027509       11.65825229
  489      1       9.32041782       17.12411004       16.85115649
  490      1      12.22259450       15.79777811       15.24619870
  491      1      11.94359239       20.33974089       16.45149884
  492      1      27.13789563       15.73706834       13.02852938
  493      1       3.17051425       22.95335709       15.72471305
  494      1      19.10930994       26.12213403        2.10866670
  495      1      17.90257099       22.75133710       18.65709078
  496      1      27.63997485       16.87435202        8.43207392
  497      1      23.50824878       25.12263884       24.94314029
  498      1      20.18851501       27.12286723       24.65143874
  499      1      24.63793160       15.45727658       15.90998297
  500      1      18.81650148       13.34411292        6.30728739
  501      1       6.38296134       21.99736705        2.39493061
  502      1      18.17233706       14.04328614       23.45439586
  503      1       1.54672788       19.43840369       13.64543789
  504      1      22.37279288        0.37569847       15.26743073
  505      1      17.89168130        5.39734694       14.73596507
  506      1      16.04903977       10.05463652       18.01137230
  507      1      22.04330072        6.74275074        9.73603350
  508      1      12.88805105        9.39238882        2.70216285
  509      1      13.79698180       27.58689785       13.57249881
  510      1       3.02524639       15.59188960        4.14927252
  511      1       2.55220273       16.35760771       15.83701526
  512      1       8.66976146        8.08702865       23.83557874
  513      1       7.92818384       16.84250412       26.23742986
  514      1      17.87698635       26.60579082       22.13874022
  515      1      12.69635906        4.77331052        6.09237904
  516      1      13.20296941       23.74100935        4.66261808
  517      1       7.10776970       20.18718062       22.98700827
  518      1       1.37618049       10.21248674       12.52461995
  519      1       9.97657452        5.52435321       18.07243944
  520      1      18.63563655       25.43770614       25.40287835
  521      1      23.18911970        1.98520955        9.05701497
  522      1       3.94843973        5.53536037       10.19247851
  523      1       3.12115336       15.91829556       22.68928125
  524      1       4.06602961       12.39080478       13.56442054
  525      1      16.35344281       17.27737497       24.61001879
  526      1       2.52307198       26.56939253        0.10043831
  527      1      12.88975489       25.99641596       20.58954276
  528      1      20.80688886       18.39031106       14.39004455
  529      1       3.91932616       21.82779838       27.16651130
  530      1       4.64550760        3.31570368        6.18836600
  531      1      14.80150048        8.23109426       12.21788668
  532      1       7.30567602        7.76656050       18.16216335
  533      1       6.47808335        3.32941417        7.59215717
  534      1       4.87729755        8.18536586       24.39072725
  535      1      14.25921022        3.46442600       16.82464860
  536      1       3.24633571        3.68449648        0.51220331
  537      1      23.74476090        6.77304216        3.08830870
  538      1      18.96875241       21.19938571       17.08174043
  539      1      20.47894632       23.09490248       14.60908309
  540      1      23.72174203        3.73653654       19.34948468
  541      1       1.22515306       23.80884247       20.10123105
  542      1      12.92189562       23.01398415       23.58367150
  543      1      13.40421381       23.60978086       13.41760104
  544      1       2.63070388       25.66147070       20.00056164
  545      1       3.01813105        1.56817009        6.13053982
  546      1      24.69912675       11.70997460       22.84991372
  547      1       8.00002216       18.93070254       19.92098743
  548      1      10.94428808       19.29196873        9.93644275
  549      1       4.68314872       22.19719527       24.86296616
  550      1       3.38149066       12.64320536        6.70569904
  551      1      23.85592171        2.38699407       12.65786339
  552      1      17.60776349        6.38871924        2.55393561
  553      1      18.54245366        3.14112454       17.73405016
  554      1      17.56859556        1.83163449       25.20203024
  555      1       6.78046214        3.23158573       22.24458990
  556      1      19.00133397        1.65370672       27.30686642
  557      1      17.76508658        7.95760432        0.82672082
  558      1      23.16458261       23.26351423       19.27447012
  559      1      22.83269644       25.33325518        2.85472231
  560      1       0.11957584        7.41146237       20.12392885
  561      1       7.72279969        4.75533053        1.45142976
  562      1       0.67910188       23.70489414       12.63671482
  563      1      20.27642393       16.70339394        2.12420361
  564      1       7.56688066       11.52179851       12.03521269
  565      1      26.84157837       24.25480265        6.75144561
  566      1      26.72514602       13.08813021       19.73269365
  567      1       0.84103246        2.11499165        7.14439693
  568      1      17.36486569        3.28573451        7.20101324
  569      1      27.31460447       24.95441224       16.03336017
  570      1      20.92106002       22.04001573       25.60351164
  571      1      13.39418625       15.21691143        5.95916972
  572      1      17.07950450       20.49101822       13.58432606
  573      1      25.51690220        0.29263818       17.42988921
  574      1       2.61303746       26.98216903       22.10420229
  575      1       8.91721258       18.81233727       25.51440444
  576      1       6.26450153       24.41827487        2.38965366
  577      1      13.12041734        7.46940743       17.74525845
  578      1      14.61270972       19.64479408       21.85873667
  579      1      15.71140950        8.53036417       21.98341863
  580      1      27.15526111       21.54256857        9.71314369
  581      1      21.26365575       18.75717957       23.73882174
  582      1      23.29452914       23.79694446        4.53407510
  583      1       6.67628307       21.07173882       20.76762110
  584      1      24.39784189       15.95602660       10.11432451
  585      1      20.64612842        6.86994641       24.87756041
  586      1      14.63253175        2.02370917        9.77426702
  587      1      25.86975112        5.80087053       11.16433013
  588      1      13.56194065        9.79508045       15.15693518
  589      1      17.20939193        4.75763854       22.98682234
  590      1      21.39628980       20.15088667        7.25603697
  591      1      18.67315515       16.83306617       12.06647938
  592      1       4.81149857       14.63067745       13.20145940
  593      1      11.02781463       14.75610037        3.06855042
  594      1      20.91193037       20.31934487        3.23552468
  595      1      17.84733776       27.65867577        0.74286990
  596      1      25.38432923       26.81416416        4.66692301
  597      1       0.20396156        4.97019034       17.51369961
  598      1       7.39908239        4.36387518       14.11699966
  599      1       8.90336230        4.42629868       25.08368345
  600      1       7.51195007       14.20669016        2.98742589
  601      1      11.74696468       15.91294918        7.74856543
  602      1      12.04577926        1.88756295       23.66085296
  603      1      17.56726395        4.21542804       25.22391913
  604      1      13.71172988        6.28753258        9.21184415
  605      1       3.55941126       12.22423960       26.50143720
  606      1      17.58651891        1.64777550       12.39026660
  607      1      27.25204152       17.10305352       18.81189153
  608      1      27.64332568       26.66865549       25.07075198
  609      1      16.24269176        6.83308261       15.77418047
  610      1      25.86541747       26.42178546       21.70503560
  611      1       4.51284977       12.73887002       19.44151145
  612      1      19.49742319        9.16640131       16.41951860
  613      1      25.42231503       23.28899391       20.11649552
  614      1      11.52419799       26.54623049        4.80943460
  615      1      17.99938264       10.44584049        9.97257309
  616      1       2.07848611       19.45654292       25.10571028
  617      1      13.65514639       26.15516584       10.18538965
  618      1       9.03765435       20.83110900        7.34575372
  619      1       1.97748564       19.89109201        7.19118580
  620      1      10.75522681       19.87703847       22.19810036
  621      1       6.89197140       22.83029090       16.95727154
  622      1      11.94651119        9.57669165        7.22956445
  623      1       5.79047008        0.91785329       26.67546056
  624      1      16.85359435       15.92601351       13.35880943
  625      1      15.20032911       11.41643627        7.16028404
  626      1      22.64438417        3.90068673        7.81709671
  627      1       5.82458194        4.25629862        9.61811293
  628      1      16.00072755       16.66295673       20.23452229
  629      1      10.67359297       22.03921963       23.40881488
  630      1      16.16210826       17.69424483        2.22761636
  631      1      20.62190191       13.57626537       19.10692524
  632      1      24.37802065        6.39451545        0.76058635
  633      1       0.98736018       14.61415845       16.63849531
  634      1       1.28184549        2.84245205       24.02907829
  635      1      18.26555863       22.11171233       14.99426607
  636      1      16.92204094       26.45944756       26.66646195
  637      1       5.68428236       17.65497061       25.98017396
  638      1       9.06982319        8.83467313        0.13721606
  639      1      23.62200223       22.09263827        1.16932873
  640      1      27.50565231        3.92559619       25.58875160
  641      1      11.00666040        1.21175381        8.92586676
  642      1       9.14075201       15.10565505        4.43538834
  643      1       4.62540962       20.12749139       20.12898239
  644      1       1.36277693        2.68880672       11.17111685
  645      1      14.50998974       27.12882835       21.88700762
  646      1      19.32963327       13.75319164       25.54514434
  647      1      21.33565715       15.77060395       27.46185782
  648      1      12.33042976       15.23855705       24.86976067
  649      1      21.54220035       18.26358000       16.76155143
  650      1      20.11229121        6.54165601       19.09111903
  651      1      26.91453650        9.67253432       11.69564169
  652      1       5.16743317       14.08850084        9.29673391
  653      1      25.29912337       12.03383148       18.19012313
  654      1       8.07996496       20.89684620        3.61205152
  655      1       2.02189976       12.78714649        2.26248424
  656      1      11.86101981       13.05632259        5.94556311
  657      1       6.65406268       16.04922679        1.79072455
  658      1      26.22012929       20.37186005       26.28136010
  659      1       7.88914315       22.66747055       19.06574137
  660      1      16.24950501        7.56559837       26.69814266
  661      1      19.39581559       18.52659902        3.31989312
  662      1       0.93976858       16.24161391        0.72593673
  663      1       1.17004641       25.34391676       14.20983755
  664      1      17.12386361        9.81227845        2.43072234
  665      1      15.00545187       14.54405988       17.59860673
  666      1      11.99052437       12.64338211        3.59194504
  667      1      13.07216663       19.81872123       13.00505275
  668      1      21.15688559        9.08542628       22.10858701
  669      1      20.73564793        4.97438824        8.85631771
  670      1      24.07935019        7.54869855       19.20935256
  671      1       8.47846831       11.72830264        6.85345726
  672      1       7.64275087       13.52507804       15.32165659
  673      1      16.39380013       27.31447319        7.48051278
  674      1       1.53673303       12.79989293       10.15056466
  675      1      25.66808708       11.54438156       10.91878965
  676      1       8.21829215        4.81409546        7.07614105
  677      1      20.41415405        4.74117119       17.60412593
  678      1      10.44371628       18.62033515        0.94726179
  679      1       1.95205596       22.76168266       22.05906840
  680      1       3.38196960        2.45596810       19.76190390
  681      1      12.62763376        8.68134580        5.07096115
  682      1      19.93914055        1.96891987       21.62013157
  683      1      15.33726048       23.85221169        3.76338517
  684      1      23.28905383        9.73769140       15.91247214
  685      1       2.30038999        8.82575961        3.19890339
  686      1      22.43935890       10.16398014        2.58121281
  687      1       4.23513892       12.30475465       24.29249628
  688      1      20.72680084       26.31017745       12.36974282
  689      1       5.27715939        8.61196510       18.87858201
  690      1      16.93239899       15.40101378       18.52114979
  691      1      20.94060984       10.23590883        7.22248403
  692      1      15.61645014        5.29961400       26.22953536
  693      1      18.96371520       17.79962271        5.72375755
  694      1       1.90645954       25.50932016       25.69815207
  695      1      21.35473207        6.52787735        2.16889005
  696      1      23.53922086        8.16288403       27.13327136
  697      1      19.03424107        0.68532412        5.14721950
  698      1      20.96362135       11.78130553        3.65319047
  699      1      23.50586073        8.31449145       21.64351229
  700      1      21.16678702       27.60062575        5.15447211
  701      1      25.04301181        8.74080821        8.73694935
  702      1      10.73600829       23.11521149       21.05757283
  703      1      10.50369480        6.74300271       12.08528991
  704      1      22.29974440       21.67113174       15.03511765
  705      1      19.29329293       15.84707276       22.05786574
  706      1       0.23525941        3.11716302        3.59659807
  707      1      10.78905443       26.76482350       21.40576474
  708      1      15.12044688       19.35114755       14.34377567
  709      1      16.43463584       27.61417483       20.60906256
  710      1      23.32818659        4.46065463       25.61842566
  711      1      14.52599883       17.40644994        0.42456244
  712      1       8.70692015        0.56176836       24.12707560
  713      1       5.70062831       17.69538823       14.64243947
  714      1       2.44179784        6.49258140       19.91957612
  715      1      16.30482753       20.10003728        9.81931662
  716      1      10.19820642       19.03691654        6.26185573
  717      1       1.34174283       27.52313862       13.40862309
  718      1      11.32690192       10.70781678       25.47751727
  719      1      25.48060162       19.40689350       16.05908395
  720      1       2.04758185       19.92151584       17.91195638
  721      1      19.14738574        2.61960266        3.80905593
  722      1       3.72551705       10.08782536       27.35425512
  723      1      24.03487859        4.81032188        4.30878372
  724      1      12.28321532       11.83524436       27.41401783
  725      1      10.10655859       13.37588958       20.27750857
  726      1      23.31942556        8.83271538        4.29477743
  727      1      13.69719227        1.94587126        5.97805651
  728      1      23.41528894        7.28725907        7.92382447
  729      1       0.13941625       16.05125311       24.35466179
  730      1      26.72392407        2.69191555        5.64428863
  731      1       0.42807048       21.21832077       25.13614331
  732      1      26.29713007        4.40763886       19.30996916
  733      1       7.29085798       17.94234246       17.89062934
  734      1       1.46515968       11.56494002        6.00056249
  735      1      19.22301279        2.14707197       14.21893598
  736      1       7.72109012        1.85373664       20.40990254
  737      1      20.92006245       14.32942290        6.45441734
  738      1      12.80502771       11.68574988        7.59326462
  739      1      13.80203146       18.72240712        7.78074650
  740      1      23.17581868       14.49719271        2.85781760
  741      1      19.14490855       11.48039617       15.97397361
  742      1       8.26033973       13.61266028       18.84566555
  743      1      22.94154864        6.78731421       25.25781890
  744      1       7.06906461       21.81279283       24.67263501
  745      1       3.33869747       21.26920479       10.67396254
  746      1       0.97738282        0.49910469       23.51384367
  747      1       6.05590787        8.73786961        2.51781730
  748      1       5.81871573       17.32345817       10.77598126
  749      1       9.99323068       26.22510074        6.55415518
  750      1      18.47393293       19.41909386        9.39436413
  751      1       9.21907409        1.74015338        0.08250438
  752      1      22.66929676        2.63286136       15.76344011
  753      1       3.78470174       20.28834194       23.84378293
  754      1      15.73421506        3.37680754        5.43913617
  755      1       7.13984154       18.87549051        4.38099378
  756      1      23.14117897       17.05168863       27.11166210
  757      1       3.76255064       20.16576645       12.74907879
  758      1      25.62707104        9.62586368       26.45360193
  759      1       8.79097957        8.95094046        9.41084496
  760      1      27.59268043       17.99818191       12.39602647
  761      1       3.38529080       16.69439306       13.61226795
  762      1      11.04462512       19.66440496       14.39260943
  763      1       7.42934259        1.66715440        3.66728307
  764      1       2.59549019       15.02848947        1.94771880
  765      1       3.73732712       17.74793612        4.05308254
  766      1      19.17898885       18.71317362       19.58892053
  767      1      14.61052333       18.13081356       25.86774907
  768      1      18.62167020       23.02829229       20.86831265
  769      1      17.07796173       16.50661518        6.51324722
  770      1      20.71584910        8.83109484       18.44197413
  771      1      24.38274631       13.14459901       16.27043052
  772      1       8.70368458       23.40298799       24.15633782
  773      1      14.02584564        1.92956256       18.63823354
  774      1      20.14487973        2.68253435        1.56189302
  775      1      10.45328171        7.19712642        9.75292348
  776      1      20.61870227        5.54480312       21.14688979
  777      1      15.60268632        2.88713147       12.91223379
  778      1      13.26337578       11.82402304       11.26813889
  779      1      19.42907367        9.07921726        8.74644160
  780      1       7.41738049       26.92385775       16.24557683
  781      1       4.79513386        7.70787519       10.04392112
  782      1      24.55573490       26.81624434        2.52624270
  783      1       3.63832632        5.99065344        0.49446347
  784      1       3.72637826        5.13258076       22.98751854
  785      1      13.66816192       23.59145366       17.64654730
  786      1       7.18538605        6.91690491        6.81102111
  787      1       9.65846513       13.62381325        6.21417626
  788      1       4.96692280        1.94068065       23.26515558
  789      1      27.25904691        2.15338264       20.28840322
  790      1      22.05835875       15.37756241       10.03070059
  791      1      21.49332261       13.48591789        8.65498350
  792      1       6.51036482       12.01083916       23.63935040
  793      1      23.94015031       12.19187800        6.03313654
  794      1       6.13698699       26.18565245       19.21884178
  795      1      27.48338926       25.04694852        2.44305360
  796      1      24.95149562       15.17114912       12.29756525
  797      1      25.74453608       13.66092791       21.91826171
  798      1      15.14714648       25.42563877        2.14177152
  799      1       4.52442931       14.26208419        5.41603286
  800      1      10.11585491        6.22694323       24.05246189
  801      1      10.68019215        7.51693913        4.38947036
  802      1      26.46092660        6.50093050       16.41208219
  803      1      20.10683883       20.86495321       23.67347605
  804      1       9.49941762       22.94213875       12.90860516
  805      1      21.18119527       23.62012662        5.73572240
  806      1       1.82887508        9.22802920       26.48108763
  807      1      10.74340205        3.40908738       17.70834957
  808      1      21.08167137        3.69723811       14.31650270
  809      1      21.02711955       20.09044600       26.94026615
  810      1      27.56576747        6.26768763        4.95526123
  811      1       8.55021385       17.03982728       21.53068727
  812      1      15.86478453        5.96811644        8.22046558
  813      1      16.52982113       11.83232096       26.79568076
  814      1       8.34456738       14.69556831       25.27949807
  815      1       7.61509541       24.68707606       22.52749204
  816      1      26.42639093        7.87206674       24.83626573
  817      1      14.53442688       10.97309122        0.07312462
  818      1      11.65385574        3.03956709       12.16947698
  819      1      10.88224767       12.37511980       14.46229924
  820      1       1.69997501       18.19518623       19.52226155
  821      1      13.80571666       21.06982273        7.66842469
  822      1       0.76686777       11.33162722       19.83178800
  823      1       0.74722004        3.61790211        9.01875270
  824      1      10.27643602       14.71443057        0.86805700
  825      1      27.35895932       23.83634795        8.97611327
  826      1       6.15737192        5.22665356       15.95478496
  827      1       0.87223475        0.89826193        2.98623791
  828      1       5.90199926        5.62825540       22.08939838
  829      1       8.81612307        9.61318681       11.75909249
  830      1      26.63502547       10.90947504        3.44641149
  831      1      19.58477838       11.24644829        5.49354954
  832      1       2.20345722        5.39938140        8.53773327
  833      1      15.47274710        0.05037216       15.26106476
  834      1       4.14621021        0.92633818       21.36490455
  835      1      25.86530723       12.25804035        1.68315230
  836      1       8.36823104       24.63073040        5.71704674
  837      1       2.66597081        4.44381739       21.00767794
  838      1       8.04996634       24.60125218       15.90721459
  839      1      22.04277409       26.71741750       19.77092386
  840      1      22.27804960       23.19892423       21.45132911
  841      1      10.33904891       15.37471999       21.62374460
  842      1       5.24694131       18.82897349        0.39404391
  843      1      12.28966552       10.17995949       20.48371239
  844      1      24.97577021       15.66705756       26.59715374
  845      1      13.30028534       24.82289882       24.92967275
  846      1       2.20871268        0.49941135       11.21407093
  847      1      24.35042465       15.50925924       22.74269451
  848      1       5.88719771       23.17784740       12.80738067
  849      1      19.14139630        7.94784015       12.47377475
  850      1      17.50856027       21.46055515        1.78950324
  851      1      15.65142505        2.43768842       15.22753768
  852      1      16.72620892       10.68959855       24.65901704
  853      1      15.14975731       13.33924392        5.65357816
  854      1      11.67256296        2.35219996       19.62359046
  855      1      11.46922027       22.56675603       17.28751521
  856      1       1.91062645        8.50820002       14.13264244
  857      1      23.22459970        0.78044189       22.85819453
  858      1       6.89329316       21.06732385       15.42512108
  859      1       9.01947466        4.33464944        5.00395412
  860      1      10.47604941       24.37330032       15.97733544
  861      1       3.33810024        5.24032217        6.36723522
  862      1      14.27368914        1.50508273       23.22078508
  863      1      20.22456800       10.23215044       20.29827579
  864      1      18.54064928       12.37753063       13.78367491
  865      1      27.24238575       26.33695867       17.89347109
  866      1       6.79845029        8.18128752        0.32994828
  867      1      11.04861414        5.27756836        4.51142298
  868      1      22.76884749        0.30254090       27.21980274
  869      1      23.63224006       17.07817210       17.28500255
  870      1      20.98755334        4.69445007        0.60793788
  871      1       5.24043566        8.65608293       12.13353192
  872      1      25.03191971       10.05962767       21.29210350
  873      1      13.94886975       16.41239675       16.68333917
  874      1       3.81945176       17.71636846        9.76363998
  875      1       4.46103716       15.29729252       16.76483724
  876      1      21.84110892       13.80211907        0.98433572
  877      1       2.96427901        0.83744054       14.82354242
  878      1       3.13636741        6.59413361        2.81162405
  879      1      26.10560031       27.60828694        9.31128108
  880      1       6.76249196       11.29028445       15.99552101
  881      1      15.09276011       18.46801870        4.20562727
  882      1      22.96249338        9.27617584       18.17397914
  883      1      13.78713383        5.84083542        1.96571447
  884      1       5.23953624       26.27105323       10.84740662
  885      1       2.74087380        7.04629835       24.06994279
  886      1       0.37001510       27.62131207        7.91101045
  887      1       1.93290106       24.49721661        9.19028186
  888      1      18.79687003       17.17763129        9.75375412
  889      1      22.45790995       16.67805404        3.02208853
  890      1       1.51953102       15.51884428       26.27173001
  891      1      12.30356791       16.62839155       21.02095480
  892      1      13.62576532       21.85399590       11.81864750
  893      1      25.91450753       25.75589742        0.60874896
  894      1      12.17889608       27.20138117       27.41285078
  895      1       2.82821570       13.86629232        8.60460899
  896      1      19.46236290       26.25538666       14.52135673
  897      1       2.97306555        8.85043765        9.06620069
  898      1      22.84239480        4.41388723       21.45614391
  899      1      25.17779400       26.56207018       13.37150120
  900      1      17.53680020        7.22917731       22.94976510
  901      1      19.22595012       22.81589420       11.11056377
  902      1      17.10152242       25.95502090       14.48876821
  903      1      26.68647279        5.99102598        0.92325952
  904      1      17.77322904       14.35327657       14.78426454
  905      1      14.24442775        8.77089005       27.04435041
  906      1      17.13459750       26.92576658       18.37026391
  907      1      23.95880401       27.59968820       20.78931953
  908      1       0.62338697        2.80174937       16.75060248
  909      1      11.31738797       26.48501388       16.65160932
  910      1       9.60938328       26.09989172        2.10330412
  911      1      26.76549416        7.83099150       10.14467188
  912      1       6.01487563        2.47697305       10.94566212
  913      1      20.39856217        7.81835027       14.65625560
  914      1      22.10153875       26.46308218       23.57633451
  915      1       6.70297740       11.30333727        5.37888278
  916      1      24.61136478       22.17203558        3.33220882
  917      1      22.22618925       20.20906746        1.29801848
  918      1      26.50868001       10.08095428       17.35351769
  919      1       5.35584156        7.35759492       15.50344373
  920      1      11.31992773       12.10312040       23.55697398
  921      1       8.93995572       20.87506044       13.97367322
  922      1      13.57285172        5.23990233       22.63097127
  923      1      17.52256333        8.51383647       24.96323093
  924      1      17.28936791       24.52920679        5.14821831
  925      1      26.05882482       14.97139335        8.64827886
  926      1       5.75600121       18.78653646       12.58982897
  927      1      11.65808635       27.64428532       14.48502327
  928      1      16.43451525       12.02522023        9.09036242
  929      1      13.66133201        1.27762114       26.75198274
  930      1      17.76852988       19.28800615       17.69875715
  931      1      19.62223675        1.11055720        9.32732121
  932      1       3.56268964       13.15903304       17.29583203
  933      1      20.01372999        4.41511994        5.04349587
  934      1       2.22582309       26.87178659        9.12040423
  935      1      21.01125177       15.72145860       20.18392007
  936      1      15.42932897        7.30296140        3.11306368
  937      1      14.88342592       10.65253834        2.35617683
  938      1      22.38546376       11.94231335       12.95731778
  939      1      14.73150817       11.76849929       14.47546386
  940      1       8.16040941       22.21509545        5.58975279
  941      1      15.79760415       17.21070459       15.20110373
  942      1       5.73036300       21.97767102        5.77948501
  943      1      12.63233854        7.78537657       19.99062594
  944      1      12.23055654        2.14779148        2.36711964
  945      1      26.09797258        4.24100010        9.46136280
  946      1      15.45638446        0.52836408       25.32769300
  947      1      12.48003422        8.30476360        9.20154827
  948      1      15.56460313       22.31430097       18.75428051
  949      1      21.40306557        3.23032983       24.96120668
  950      1      25.27889702       20.69430696        8.56959263
  951      1      10.41573839       21.56705187        9.26884347
  952      1       8.69379869        9.48989333       21.83603039
  953      1      17.99635336        7.48169124        7.46993156
  954      1       9.95804995        2.73865630       10.35405234
  955      1      23.67977629        8.02442541       12.75538177
  956      1      21.04748074       15.19094705       25.18483467
  957      1      13.47682603       21.72410534       27.01750166
  958      1      13.63087746       24.44481448        8.60510823
  959      1      15.17229341       15.97835660        9.84603945
  960      1       9.58255173       13.53039370        9.85094098
  961      1      21.02609496       17.11163184        8.90288344
  962      1      26.92401782        2.37745364       12.23814611
  963      1       6.09175511       27.10983749        6.84112646
  964      1       8.56391812       14.70948250       11.70492479
  965      1       8.02179542       20.89234254       26.58282599
  966      1       7.38179319        8.90811480       15.47261295
  967      1      18.34401211       11.28278891        0.76425905
  968      1       4.52880147        7.48856961       20.75535468
  969      1      11.78223514       13.19050162       18.57403167
  970      1      26.38862113       21.23792960       19.52922542
  971      1       0.34032457        8.06134757        6.48384357
  972      1      18.33740850       11.68052147       23.12893832
  973      1       4.61864619       22.93741760       17.63678489
  974      1      11.24290066       10.03403857       14.68801236
  975      1      25.12374556        1.49569168       24.05802715
  976      1      20.85264301       23.92124198       12.42063942
  977      1      25.87017340       12.29807010       14.70709536
  978      1      17.16840546       27.24634419       11.18311932
  979      1       0.95237183        0.68404718        0.60150371
  980      1      14.18321064       11.59462788       20.75514338
  981      1      23.22529916       25.89419192        7.70397703
  982      1      15.17757403        3.47245809       22.28335044
  983      1      24.22986245       13.47653964       25.83723633
  984      1      12.87543452       17.41785237       18.71445328
  985      1      25.82935497        4.84617136        5.77243929
  986      1      14.85557136        5.77018925       17.39205988
  987      1      11.57678335       19.88921860        4.57887133
  988      1       3.56493526        3.26393130        2.91077357
  989      1       8.64117553       17.35527181        5.45954140
  990      1      25.76595830       13.59348747        6.49507127
  991      1       3.96806034       23.67336120       23.14293144
  992      1      17.70589964       16.94931916       16.80847807
  993      1      13.30368382       25.52328253        6.27913426
  994      1      22.33224202       13.32980271        4.74589406
  995      1      24.31056317       18.61041660       13.97453974
  996      1      19.25663817       25.26955922       20.89075397
  997      1      12.24033406        5.31998374       12.55760799
  998      1      14.30882798        2.18316797        1.09522535
  999      1      18.02807848        9.65781629        4.72213181
