run_id:  1014  total_energy:   -3022.2164725907314

  1000 atoms
  1 atom types
  0.0   27.664  xlo xhi
  0.0   27.664  ylo yhi
  0.0   27.664  zlo zhi

 Atoms

    1      1       0.03924619       18.78918695        6.74545506
    2      1      14.64179512       18.56516473       19.60856161
    3      1      19.99888030       15.13555749       15.86633275
    4      1      17.39155887        8.34944163       17.14893815
    5      1      12.83246207       12.82818925       13.23711191
    6      1       8.85599478       16.66553915        0.74487949
    7      1      13.86653143       23.98424697       26.99153952
    8      1      24.92534539       22.93544927       12.38193884
    9      1       0.65937043       26.03948221        6.11200460
   10      1      26.74273994       27.53080273       27.09538821
   11      1      26.24211605       24.03175274       26.53407596
   12      1      24.68250682       12.95417960       12.37820350
   13      1      11.74985501       16.38928484       11.39333675
   14      1       8.77293841        2.82804020       23.39562522
   15      1      22.29427057       12.23233537       22.81783129
   16      1      15.99529365       21.58462528        7.98300196
   17      1      22.71232665       17.49829605        5.24984131
   18      1       5.65669028        9.40974569       26.32898077
   19      1      24.99846898       10.31166104        5.02002693
   20      1       8.66852579       12.95164570        1.28107368
   21      1      25.63382058       18.11884927        1.77860616
   22      1       2.99252306       23.67430636        7.19815483
   23      1       4.97586867        2.34805134       17.99361418
   24      1      10.40438764       14.37605987       23.85719386
   25      1       0.42133887       14.91890023       19.12946968
   26      1      27.42124905        9.51519844       21.33171129
   27      1      12.91437889       18.17502113        3.63301872
   28      1      22.32149718       19.12193522        9.32683023
   29      1      17.71236880        3.21001385       15.56879493
   30      1      27.30540156       22.40635324        5.59989981
   31      1       4.81202441       21.78735478       14.25614753
   32      1      16.68050908       18.82761561       22.83099584
   33      1      16.93934323        2.93382129        3.35286245
   34      1       9.66843098       16.73881955       12.33223931
   35      1       8.21525584        6.10352388       12.54261117
   36      1      15.73205842       27.19302726        3.59784030
   37      1      10.63703757        6.60214543       20.11938419
   38      1       7.06070802       26.92433757       23.02470340
   39      1      21.86323489        2.71365758       18.08803862
   40      1      10.72095631        0.53431000        1.29627572
   41      1      10.81540855        7.14815610       27.65476853
   42      1      10.61541445       25.35974560        8.66509879
   43      1       4.49823179        0.71135050       11.53035317
   44      1       8.91667486       18.79242141       23.15420677
   45      1       1.37363477       13.19093926       26.41445692
   46      1      23.75526767       10.97378771       19.46642001
   47      1      14.35459723        7.67945634       14.47550275
   48      1       6.62677327        4.99955136       25.71586623
   49      1      14.98315471       20.37902291       25.91832346
   50      1       9.76055551        4.84501362        8.98032087
   51      1       1.39317245       18.53074531        1.06420332
   52      1       7.37567590        2.40801437        1.29783851
   53      1      24.49422947       19.93763505       22.66728811
   54      1       0.33923165       21.48475307       13.34061630
   55      1       6.86675510       21.95345308       11.07093803
   56      1       4.65108820       24.48137301       19.59912294
   57      1       1.89438532       18.84924873        3.34346431
   58      1       5.75425162       11.76274206        9.29630685
   59      1      27.18589236       11.77027214        7.27155915
   60      1      23.33546386        4.40578779        0.22699733
   61      1       2.33714658        3.14585209       15.33810512
   62      1      18.78219618        0.71771790       23.30818751
   63      1       8.11523824       11.68920682        9.23427585
   64      1       5.41276844       27.60095518       17.41474494
   65      1      20.42297042       21.75522024       21.53760800
   66      1       7.08841635        5.13289675        3.62326767
   67      1      16.00043545       13.21113583       15.94888072
   68      1      24.44557363        7.21620467       23.58952840
   69      1       0.19080761       12.30562683       24.62211513
   70      1       7.16464384        3.00295478       18.46002673
   71      1      10.39012416       17.38473948       14.61153362
   72      1      13.74302794        9.73167630       17.34881768
   73      1      13.30620991       21.09817987        1.55949176
   74      1      24.73876741        3.42755386       14.89890170
   75      1      26.34739452        1.83201710       15.82567522
   76      1       2.70411362       10.74604943       10.61220259
   77      1       2.64529381       23.60668892       11.16466039
   78      1       7.68385573       20.01768993       12.17174279
   79      1       3.86757759       16.86387919        7.79381351
   80      1      23.74021100       26.54521114       16.61527157
   81      1       6.98602175        7.54929751        9.02929933
   82      1      18.80443963        3.99555440       21.36282496
   83      1      11.04120646       18.98362708       26.25041746
   84      1      14.74451307       27.41205996        5.81090663
   85      1       0.70397071       21.97869582       18.57492198
   86      1       5.67882884       17.99547353        2.76398433
   87      1      26.81771044       25.13108257       19.91856945
   88      1       9.55846217       14.99832500        8.24132865
   89      1      25.27663863        3.77599508       24.51267201
   90      1      24.23555091        5.74560536       15.82291563
   91      1      11.77303299        4.49943952        2.42697479
   92      1      25.61338485       10.00709225       13.54165643
   93      1      19.96887576        0.32605815       15.59321938
   94      1      16.11492804       10.26271735       20.33407922
   95      1      22.82075339       14.23508988       24.04338481
   96      1      17.72719360       20.81871686       23.70498191
   97      1      10.12501411       19.78661310       19.79754100
   98      1      12.97594230        9.47923190       11.21881881
   99      1      25.70816768        9.09635499       15.68056843
  100      1      27.53951111        6.22860271       26.33098409
  101      1      22.73461415       11.62269585        7.94965968
  102      1      15.02876471       26.03690301       23.98691787
  103      1       8.99012265       14.70086876       16.85226246
  104      1      18.90740154       22.90218694        5.06554818
  105      1      17.88071844       26.50910327        4.11080440
  106      1       2.92511571       25.48455003        5.78393938
  107      1       9.67827508       10.03730123       18.13554326
  108      1      11.20075445        5.35424958       22.12439457
  109      1      23.76281738        1.41055854        2.61110044
  110      1      16.04556714       24.51975695       27.66238400
  111      1      13.85676633       13.62261328       19.48338659
  112      1       1.79996990       15.72424944        7.46614317
  113      1      11.08524647        6.93603390       16.51830084
  114      1      12.87267208        7.75025641        0.96989809
  115      1      23.80950987       24.45387730        9.47282127
  116      1      17.19208318       14.60594031        5.21495598
  117      1      19.83824019        4.87317085       25.93836829
  118      1       8.65316531        2.40445976       14.72690737
  119      1      18.96848289       18.91212446       13.08225877
  120      1       8.88636866        2.13942373       17.06354421
  121      1      12.54099885        5.89502439       14.81686779
  122      1      18.13656676       15.16601671       27.06675181
  123      1      26.96426911       14.28180818        4.54206763
  124      1       5.82601504       19.24945528       16.49077246
  125      1      14.47125200        6.79695430       21.03667216
  126      1       2.67528546       12.39272156       20.98709085
  127      1      19.62788014        6.29811191        3.72220942
  128      1      11.11834299       13.93486825       16.26722651
  129      1      20.91984697       16.70412718        6.58130257
  130      1      14.92178775       22.21490846       20.96527655
  131      1       5.07398141       11.03058218        7.07345631
  132      1      14.91186837       17.21996413        6.21639405
  133      1      25.15569822       25.18476209       15.26900958
  134      1      16.85882648       22.74264989       22.46929255
  135      1       5.23190281       23.21990101        7.65713258
  136      1       6.06915939       21.00066850        0.34256077
  137      1       9.50466910        2.01688630        4.97695247
  138      1       3.02053767       19.46740373       27.32074439
  139      1       6.25060263       15.01724645       11.22520703
  140      1      13.00479435       15.82591596        3.84835743
  141      1       9.60437789       24.48449260       26.11443978
  142      1      26.86109097        0.64921695       13.78929500
  143      1       9.17240451        9.69920281       25.61409095
  144      1       3.90039636        9.03445963        6.85403173
  145      1      17.17547978       23.46691364       10.81311032
  146      1      21.61045633        8.60629066        1.00879880
  147      1       1.83797057       21.90473512        5.95809646
  148      1      11.43334653       26.91179803       10.27502397
  149      1      13.73149314        1.83464412       11.98575858
  150      1       7.34626383        1.19592374        7.92537868
  151      1       0.40678850       12.17692182        0.59290647
  152      1       0.10614954        9.16149150        2.39100526
  153      1      15.44464884       20.62320133        4.74869131
  154      1       7.80051799       25.62973717        3.65608370
  155      1      14.08106851       14.38485384       23.39239083
  156      1      24.71877621       17.61077314       19.17095057
  157      1       2.07732339       24.90150022        1.71267942
  158      1       8.73442491        8.30116518        5.43726132
  159      1       1.22809514       14.19788833       12.22443544
  160      1       2.12559744        6.91053902       26.41450754
  161      1       4.25692583       20.60547094       17.92524749
  162      1       5.53955738       16.37871796       18.48962133
  163      1       5.03858080        1.19208074       13.81832225
  164      1       0.58785208        6.65762854       14.40106565
  165      1      13.35115349       14.86695222        8.56898304
  166      1      19.42390235       23.58431273       26.71575947
  167      1       5.82721084       15.24746066       14.88711090
  168      1      11.02953578       18.62316468       17.93040876
  169      1      14.66789152       18.28131715        9.86208096
  170      1      26.61210212        7.25837469        2.99828811
  171      1      11.50396011       24.51455820        2.76817760
  172      1      20.68769482       15.32375039       12.07406416
  173      1       7.34995670       17.97639443        9.30289940
  174      1       1.74283330       14.50654247       21.33868762
  175      1      16.33070598        9.19629968        6.28352220
  176      1       2.24538115       21.14691435        3.70078973
  177      1      18.12169292       13.59740054        8.55372312
  178      1      25.71125723       23.31161791       22.57406864
  179      1      11.51160733       18.23274610        8.04935584
  180      1      25.54823770       18.09480051        4.06265222
  181      1       8.26437905       25.24014598       19.00056480
  182      1      22.54799794       20.99730181       18.68921343
  183      1      15.39676638       21.75867748        2.75867597
  184      1      21.11484751       26.86069448        2.97144477
  185      1      24.98251091        1.49641309       19.41298150
  186      1      21.89140541        8.34246257        6.11242775
  187      1       0.82735987       23.35103361       26.25071749
  188      1      12.56582034       18.42742156       22.56541212
  189      1      17.44843660       22.59123731       27.41087170
  190      1      14.90333021        5.55056287        6.08018735
  191      1      14.25392301       25.55726019       12.35385834
  192      1      10.80785331        3.08963568       22.00358711
  193      1      25.73570474       25.25304759       24.08040907
  194      1      21.78553862        0.96388206        1.62796859
  195      1      10.26837960        3.54733594       26.73065821
  196      1      18.02154625       24.70106196       17.47811869
  197      1      20.94678615       20.69645485       17.01271636
  198      1      16.53853213       25.34257864       12.24441208
  199      1       3.38513905       26.95331935       16.45250595
  200      1       1.25116678       18.10062346       10.17538995
  201      1       3.99757656       15.96222953       26.21207018
  202      1      16.00930996        5.78402252       19.39399639
  203      1      22.03795387       20.53120334       11.26095055
  204      1       3.75878671       24.86541922        3.47669367
  205      1      18.24561896        5.71871307       12.34169500
  206      1       9.16273538       10.59691398        1.87495619
  207      1      26.82016984        5.47336978       21.40199720
  208      1      26.33017344        7.78974013       18.63246186
  209      1      26.45741649        4.24617299       13.13910686
  210      1      12.94039038        8.99079370       25.09839274
  211      1       4.71823784        9.29871523       22.39231996
  212      1      24.78017327       22.20105873       26.75943521
  213      1       0.17772059       17.88640561        4.67856045
  214      1      23.17210378       16.70367484       20.91322438
  215      1      13.17356186       25.92600704       18.12759403
  216      1      14.13861535       15.27691320       21.17657646
  217      1      26.26039564       15.99618910        0.97279040
  218      1       4.87893295        3.18927491       26.43059762
  219      1       3.81285218       18.64827273        6.34329215
  220      1      20.47992547       10.72649550       23.78160791
  221      1       9.90599837       22.36383284       27.24629910
  222      1      11.37927178       26.01198690       25.47608267
  223      1       1.19509280       12.33139146       13.68009342
  224      1       9.77009673        8.88780539       16.10750959
  225      1      17.29985462        3.78783372       19.56349866
  226      1      16.56763223       11.43338025       12.91418500
  227      1      25.53870985       14.42107850        2.57384239
  228      1       6.15905815        5.98138811        0.13152027
  229      1      13.65499397       12.07290154       22.98425602
  230      1      26.69083231       20.19644614       21.57377420
  231      1       7.60329730        5.63146964       10.26340443
  232      1      22.63212463       19.74828750       13.46882330
  233      1       4.41548815       12.18758763        2.34790351
  234      1       1.11565391       19.03740125       21.62483131
  235      1      21.47156008       16.08291163       14.10419428
  236      1       1.78884641       27.08785575       18.25426767
  237      1      17.05024667       24.92224962       23.60394180
  238      1      20.04941661       24.01765106        1.30331269
  239      1      14.18623064        6.11124829       11.44055354
  240      1      22.28632796       25.21270032       17.98227718
  241      1      14.67156388        9.97069747       23.66803858
  242      1      19.51708921        7.84055719        5.38443823
  243      1       5.41213861       18.70556564       23.73967773
  244      1      24.83988096        2.73029247        0.91475516
  245      1      12.15916683       12.84048905        9.42031077
  246      1       6.88231719       24.99051797        7.52063081
  247      1      18.96926581        5.07109581        7.10499831
  248      1      12.15830772        3.66594249       15.82985092
  249      1      22.51150226        9.84550423       11.52333970
  250      1       1.37819384       18.87491570       16.11514614
  251      1      16.08091353       14.16773692       26.59062028
  252      1       3.00724051        1.15747159        3.75713521
  253      1       5.19605152       13.13086522        0.27934389
  254      1       5.73029568       23.47669047       21.52346196
  255      1      11.83929582        6.84803448       25.47061582
  256      1       0.99564874       15.77915995        5.20737547
  257      1      24.27300134        0.29223002        7.84910420
  258      1      24.62239372        5.17376547        7.72941635
  259      1      15.45980777       27.57711400        9.57699711
  260      1      23.37635716       18.17662894        1.43542327
  261      1      21.13652421       19.93241912       20.29612257
  262      1      25.52573305       16.72495010       24.53224516
  263      1      24.88937783        1.24906763       26.65895027
  264      1      19.94291700       16.89112571       24.06520569
  265      1      12.82875609       18.72727982        1.44696344
  266      1      17.48453932       21.19817512        6.12735708
  267      1       7.54187916       26.68735591       10.77250946
  268      1       9.34863427       24.99066447       21.05298871
  269      1       6.92936397       19.96381117        8.22461083
  270      1       5.43474829       21.54419623        9.33176499
  271      1      16.34317122        3.66791514        9.43784082
  272      1       4.91761116       10.97184868       11.67697883
  273      1      21.81611369       11.99373883       20.39492449
  274      1      16.04656472       21.50223622       11.60011691
  275      1       0.02507223        9.85922008        0.13328201
  276      1      22.24418478        3.78813402        5.45935900
  277      1      17.78067255        7.26561257       19.16243498
  278      1       4.87264231       17.16918431       21.98039305
  279      1       8.90371724       22.96381331       10.55285241
  280      1      20.33110467       24.68610119       16.49661827
  281      1       9.64526853        9.65238437        7.11262641
  282      1      26.76212434        0.83303303       22.33784188
  283      1       2.01386941        4.98744867        4.25345583
  284      1      20.90203996        1.12761893       26.03698822
  285      1       2.61307151        5.92182492       17.70062839
  286      1      22.77528164        7.60817457       14.79479898
  287      1      15.51445012       12.62346877       11.15525945
  288      1       4.39095494       14.71100108       24.27613391
  289      1       1.46568755       10.32655509       24.36748426
  290      1      21.41560830       25.36469868       21.61730774
  291      1      10.39103733       11.24399801       21.56030912
  292      1       4.07698187        4.16075583       16.66714030
  293      1       2.86421307       20.64069154       21.72745566
  294      1      23.43111341       25.69662834       27.21685984
  295      1      20.67315841        1.00253406       19.44588793
  296      1       0.08959230       14.10246378       23.03471192
  297      1      17.85929860       17.53619667       21.24272780
  298      1      14.29068978       15.03858798        0.25406754
  299      1       0.56355096        8.45359539       23.43353920
  300      1       4.78214001       27.08131037        0.58260312
  301      1      19.34727092       25.32915472        8.55098122
  302      1      14.66635340       14.67255236        2.50391817
  303      1       7.25920390       11.06822566       25.66011028
  304      1      17.24690573        4.35856237        1.55802170
  305      1      19.95844106        7.16185035       22.62358804
  306      1      16.70539080       23.90899276       15.57334035
  307      1       4.10933779        9.93936750        2.04674320
  308      1       1.57983238       20.33101922        9.45616257
  309      1       9.46443903        0.84575864        7.06914401
  310      1      24.91909321        1.08679546        5.78874746
  311      1      20.12547562       16.86887481       18.01455840
  312      1       0.95746585        2.99604359       27.62973382
  313      1       3.13957137       10.99746499       22.85113292
  314      1      23.76646877       22.18095806       22.99237886
  315      1       1.36870027        1.68773547       18.79883902
  316      1      14.88891731       27.47180472       17.54629255
  317      1      13.22628031       21.42543783        5.42892184
  318      1      25.71917137       18.99647389       11.89671649
  319      1      24.63611564       18.52455612        9.75099877
  320      1       4.28205109       24.81036067       12.36796899
  321      1       7.75932544       24.36203173       13.63717378
  322      1      12.52859098       17.64588352       24.86148738
  323      1       2.05850786        9.36834659        5.49603629
  324      1      20.34686082       12.99272384       12.28542656
  325      1       9.90646278        0.73169040       19.93941775
  326      1      23.79038803       22.60376189        8.05404021
  327      1       8.33436328       26.49176557       12.86367188
  328      1      23.25715762        5.95681641       11.48697623
  329      1      14.82023151        7.71075779        5.21719715
  330      1      21.38957473       22.44061817        7.95232037
  331      1      23.85214959       16.24443993       13.95868094
  332      1       3.71091124        5.23174472       12.60538099
  333      1      22.56311709       18.78025972       21.80566108
  334      1       0.68708058        3.76760564       21.93209290
  335      1      10.99586778        2.24247852       14.26389850
  336      1      26.36072827       21.21567664       11.75954859
  337      1      19.71237812       20.57759929       11.50879913
  338      1      24.83804710        5.16786948       22.65220399
  339      1      19.82192225        4.38941005       11.00333369
  340      1      19.04629102       19.72233511        7.18828418
  341      1       8.75096944       13.08040746       13.41743922
  342      1      11.45590829       11.05803464        1.93360952
  343      1      18.72412178       19.17853570       27.05988321
  344      1      27.02396542       15.74355698       15.41127226
  345      1       3.53193276       25.85809662       23.97326523
  346      1      10.08530668       21.99767173       19.16400711
  347      1      24.08671192       10.94802694        0.84046158
  348      1      13.47613383        5.12815926       25.07365851
  349      1      26.49216979        7.35748667       12.99449130
  350      1      26.24066842        9.60600067        6.85457489
  351      1      18.19916259        1.13406923        7.27242857
  352      1      26.81762529       22.93663901        3.33122700
  353      1       8.10190059        0.29600358       26.39720825
  354      1      12.92639916        2.31295492        8.24930816
  355      1      19.74687983        8.98566576       25.45961081
  356      1      16.10720027       14.90863459       24.33935736
  357      1      19.76066829       12.46264566       10.02754696
  358      1      18.23760749       13.26675668       19.14622257
  359      1      22.61747440       18.82280608       25.63085008
  360      1      25.91934985       25.32188355        9.91821119
  361      1      15.11917024        4.38342502        0.65676696
  362      1      12.37237710        3.03880103       25.68979391
  363      1      10.16826468       20.40548729        2.74585925
  364      1      26.24516906       24.82466258       12.06559403
  365      1      16.17040080        1.14894927        2.08908881
  366      1      18.98741871        0.72663749       17.79582339
  367      1       6.62935093        6.75571583       24.03947055
  368      1       6.64324568       15.72081251       21.70954997
  369      1       8.38256297       25.88172521       27.55411469
  370      1      15.45359142       20.06989278       18.04846140
  371      1      10.84710766       27.49548515       23.68867592
  372      1      26.93759100        3.72980637        1.47534967
  373      1      23.18343491        5.69332521       17.97396560
  374      1      14.38161698       12.61104520        3.47590305
  375      1      16.83167792       15.47577825        2.98455055
  376      1       6.21543280       14.50959963       19.73364996
  377      1      26.13263024       20.52329573        6.43080821
  378      1       9.05546552        8.38058653       19.79512238
  379      1       4.05139379        7.40976238       13.57654780
  380      1      27.08630870       12.90192347        9.36405776
  381      1      24.65957198       19.88604352       18.28109537
  382      1      12.72655929       22.30887867        9.43152743
  383      1      13.01521607       23.69962412       21.29618700
  384      1      23.89363199       10.50531893        9.67308560
  385      1      18.12896997       11.38106874       20.76120375
  386      1      14.23813036       20.60459091       16.08707475
  387      1       5.83168586       19.71865283        6.20529379
  388      1      27.05970325       19.78083450        0.82556811
  389      1       4.14156573       17.77730988       19.87880292
  390      1       1.21953891       10.90046163       17.65324828
  391      1      11.11174673       22.29312138        1.73414883
  392      1       1.57874981       17.65021968       23.51229670
  393      1       3.76056528       27.28821917        7.12484691
  394      1      26.72915911       21.56634760       15.27253651
  395      1       7.35285619        0.46843336       14.27052240
  396      1       4.54858252       27.18842581        3.03588353
  397      1       5.45617129        3.55929935       13.12163105
  398      1       5.63163374       15.35230755        7.32618364
  399      1       6.30794626        0.05280633       20.90814265
  400      1      27.06558072       17.81993307       16.54550119
  401      1       8.97196934       18.51271944       10.92053864
  402      1       7.87812428        1.32564534       10.23227441
  403      1       1.57956388        4.46678359       13.46036998
  404      1       5.68623348        3.32557958        4.06131350
  405      1       7.43454544        8.28851670       13.00007088
  406      1       1.05747876        7.49365055        8.60316442
  407      1       2.76195584        9.72156720       16.15840947
  408      1      25.29415799        2.15776681       10.44810163
  409      1      19.29328582       26.81710673       10.38145104
  410      1      18.36036328        2.70602413       10.48032584
  411      1       7.57323225        5.40186925       17.91646706
  412      1      18.32169932       17.21668325       25.81465642
  413      1      11.85390012       10.89469855       18.33084839
  414      1       6.15773628       25.18982467        0.22162997
  415      1      14.48333709       21.27389735       23.85476942
  416      1       3.05493082       15.64186637       12.28478840
  417      1      12.21505606       14.24103170       27.12730625
  418      1      21.63285830        1.56442650       10.62959492
  419      1      22.94293981       27.60179959       12.94489928
  420      1      10.67921005       26.44587997       12.67664440
  421      1       6.60732616       10.55497374       21.78128192
  422      1       0.62452370       12.45368943        4.07275191
  423      1       7.75330475        9.78792128        3.80875155
  424      1      19.62147216       23.31083976        9.79506175
  425      1      20.67785069        8.46146827       10.63985341
  426      1      22.38688510       24.12653944        1.02045189
  427      1      17.25217575       20.75710084       26.01047443
  428      1      12.73341181       18.52339629       11.19401968
  429      1       3.43009526       25.12364183       14.77530493
  430      1       5.86439979       13.01072653        4.04166451
  431      1       7.42496536       13.02878118       26.96622537
  432      1      24.89831612       22.88940705       14.64844120
  433      1      22.84811463       22.87881749       11.21784028
  434      1       3.56311890        3.30951188       24.42008386
  435      1       0.70919871       22.86130564       16.43464460
  436      1      21.05879197       25.76794706        6.86819054
  437      1       8.40798170       24.98849209        9.40095214
  438      1      15.95211362       23.77425032        8.75431514
  439      1      12.97199379       25.38923818        1.11969694
  440      1      20.91070977       13.00078021       16.62357275
  441      1       3.87507647        7.96707321       17.16544472
  442      1      17.25255935       25.17217603        7.45357382
  443      1      17.30964262       15.81534231        8.72682366
  444      1      10.11072225        5.07684141        0.84266236
  445      1      15.25158706       14.92959135       11.84977294
  446      1      11.02243786        9.09617173       12.54185674
  447      1       4.37412182       22.31315490        3.80741804
  448      1       4.94353619        7.04902713        6.01859493
  449      1      24.87015849       19.01922802       24.80025054
  450      1       6.46378067       27.36838392        4.38526599
  451      1       9.40184273       27.40653922       17.73289205
  452      1      27.55775133       26.71654247        4.05920783
  453      1      19.61508179        9.32455243        0.05597632
  454      1       1.94012267       22.88499907        0.55299983
  455      1       5.91913714       10.86747137       19.51703624
  456      1       0.55862256       21.64513292        2.01946141
  457      1      17.36474489       11.95237008       17.30902040
  458      1      11.17877688       24.31409743       13.69685672
  459      1       4.65130293       15.25523002        0.69773494
  460      1      21.94061566        3.90198056       12.14894864
  461      1      20.12412918        5.54510081       15.36702333
  462      1      19.79719274       12.88255365        1.84579451
  463      1       4.30964263       11.52564037       15.72554554
  464      1       5.27807252       27.52038991       24.48792255
  465      1      13.09394034       15.12644770       12.93649056
  466      1      23.11754980       22.77466377       25.13427109
  467      1      17.08804200        9.30449177       11.94840216
  468      1      24.60206192       20.22287874        4.69584388
  469      1      21.84310313        2.64278001       22.69853242
  470      1       7.75783585       16.42063289        7.59687455
  471      1       5.35521112        6.87422136        3.70527521
  472      1      25.61854130       11.68357630       25.06742189
  473      1      22.85596554        1.62816050        4.86140260
  474      1      22.73886549       11.80522874       15.36923988
  475      1      27.54636010       21.92931689       22.96024761
  476      1      11.43851900       21.26617385       25.89608287
  477      1      15.72081166        2.25900447       20.23892689
  478      1       7.71118688       11.45489910       18.12891544
  479      1      22.78598089       12.33431319       27.20859353
  480      1      11.83134201        1.29192627        4.52149854
  481      1      12.19482633        4.60767883        8.35420965
  482      1      22.31949273       19.82414806        5.20907292
  483      1      14.47186675       23.02140361       15.50248503
  484      1       6.72377188       14.45928201       23.63738422
  485      1      17.89142200       19.16074085        1.64265742
  486      1      18.69563339       14.98530220        1.71028623
  487      1      24.63718088       25.00203257        6.03725075
  488      1      19.43151497       22.26335916        2.88470132
  489      1      16.08462876        4.84352439       11.65986439
  490      1       9.27424064       17.14991573       16.82765052
  491      1      12.18707002       15.78682233       15.12610090
  492      1      11.88090298       20.34546398       16.45230926
  493      1      27.24262470       15.78325223       12.97401185
  494      1       3.20598246       23.02380725       15.73343543
  495      1      19.08966718       26.11581733        2.12286969
  496      1      17.75626039       22.73558895       18.64194745
  497      1       0.07426204       16.97521129        8.41911037
  498      1      23.47948701       25.11664802       24.95757639
  499      1      20.16285936       27.11477009       24.65323581
  500      1      24.74323325       15.31287775       15.88516742
  501      1      18.87452064       13.36519153        6.31157157
  502      1       6.39333718       21.99621484        2.39134391
  503      1      18.16062737       14.04240635       23.44727172
  504      1       1.69414458       19.35959019       13.62379346
  505      1      22.35028615        0.27757542       15.25617895
  506      1      17.87261131        5.37294023       14.72680643
  507      1      16.05654374       10.06893705       17.97879186
  508      1      21.97360686        6.74830434        9.66931032
  509      1      12.90359165        9.37610557        2.67303713
  510      1      13.82247879       27.55480387       13.53858449
  511      1       3.03579335       15.61368460        4.16390795
  512      1       2.50263600       16.48253578       16.24319708
  513      1       8.67609159        8.09774369       23.83395038
  514      1       7.92823852       16.84799172       26.26067873
  515      1      17.85645593       26.59088157       22.13106365
  516      1      12.68974644        4.77710781        6.08399731
  517      1      13.18422867       23.71984630        4.66754504
  518      1       7.09078998       20.19012712       22.99269278
  519      1       1.39013987       10.23187971       12.49081752
  520      1       9.98615485        5.53866263       18.06659376
  521      1      18.61348889       25.42765962       25.40448840
  522      1      23.18580045        1.99929499        8.99647366
  523      1       3.90686246        5.54804217       10.19920817
  524      1       3.10701230       15.94871778       22.72351448
  525      1       3.87040472       12.24422377       13.50561068
  526      1      16.33338522       17.27500364       24.60981336
  527      1       2.51310134       26.57409499        0.09110503
  528      1      12.87023435       25.99218970       20.58726025
  529      1      20.97183096       18.36230377       14.36406183
  530      1       3.91098299       21.82903927       27.17539417
  531      1       4.65524450        3.33412804        6.17016804
  532      1      14.80179875        8.24800876       12.19558094
  533      1       7.31993864        7.77950931       18.18205481
  534      1       6.47066986        3.35170963        7.59238944
  535      1       4.89275484        8.19670529       24.41560953
  536      1      14.25424893        3.45106699       16.81006032
  537      1       3.24353583        3.68807228        0.50818898
  538      1      23.71442409        6.76836423        3.06451154
  539      1      18.61354942       21.14819660       17.04667168
  540      1      21.07218549       22.65063624       15.34638251
  541      1      23.70820692        3.70433471       19.35747306
  542      1       1.18318337       23.84045442       20.12908270
  543      1      12.89072557       23.00009020       23.60504964
  544      1      13.38796524       23.61375855       13.37744698
  545      1       2.61285892       25.67582767       20.01170261
  546      1       3.02551177        1.59818314        6.10641738
  547      1      24.67554841       11.72356658       22.86336303
  548      1       7.95900237       18.92881768       19.91024246
  549      1      10.87288692       19.44147299        9.95743120
  550      1       4.66922981       22.20297941       24.87138880
  551      1       3.40490140       12.63612208        6.70330604
  552      1      23.82811662        2.28950389       12.63909230
  553      1      17.61437097        6.37396687        2.51447190
  554      1      18.55722099        3.10692061       17.71810975
  555      1      17.55376315        1.82305603       25.19580029
  556      1       6.77604396        3.23482252       22.25196340
  557      1      18.97920321        1.64464269       27.30486829
  558      1      17.77237289        7.95540066        0.79850728
  559      1      23.10864573       23.24378285       19.28338799
  560      1      22.79374286       25.30726723        2.90198856
  561      1       0.20702941        7.36991573       20.36743617
  562      1       7.73181894        4.75604225        1.43860246
  563      1       0.76504614       23.79091993       12.60255111
  564      1      20.27874538       16.73247011        2.14483338
  565      1       7.53388187       11.54261007       12.06838834
  566      1      26.84527337       24.30209380        6.72335223
  567      1      26.72354862       13.08999955       19.77756147
  568      1       0.85180848        2.15400461        7.12149678
  569      1      17.33867304        3.28296215        7.18655506
  570      1      27.39975791       25.02019660       16.03944652
  571      1      20.89200262       22.03987933       25.60420558
  572      1      13.69441542       14.89726457        6.13006476
  573      1      16.91629653       20.33612359       13.49793912
  574      1      25.50977847        0.29890771       17.45471213
  575      1       2.60363365       26.99089673       22.11287326
  576      1       8.90874324       18.81195325       25.51834442
  577      1       6.26868836       24.42318571        2.38038111
  578      1      13.11847918        7.48894785       17.72119949
  579      1      14.57386555       19.62260309       21.86249089
  580      1      15.71025615        8.53530031       21.95504914
  581      1      27.18985578       21.60293412        9.62257769
  582      1      21.23616839       18.76143822       23.73503967
  583      1      23.20590636       23.76905796        4.62556768
  584      1       6.65787564       21.07598550       20.77658293
  585      1      24.44557380       16.03367303       10.03978734
  586      1      20.63150867        6.86698454       24.87019301
  587      1      14.62073103        2.02353225        9.76416557
  588      1      25.62070566        5.66518481       11.19034561
  589      1      13.55751038        9.82678445       15.12460813
  590      1      17.19661373        4.75240398       22.96862398
  591      1      21.34949293       20.23586022        7.37003697
  592      1      18.71968574       16.77254726       12.07847268
  593      1       4.82997474       14.36855389       12.99881438
  594      1      11.07147695       14.75793188        3.12793325
  595      1      20.90159849       20.35050764        3.27483280
  596      1      17.83347134       27.64678016        0.74376962
  597      1      25.37024695       26.81132682        4.65858055
  598      1       0.18413966        5.08002697       17.56881513
  599      1       7.39310413        4.39473455       14.12078825
  600      1       8.90707530        4.42690355       25.07700696
  601      1       7.55704684       14.22881337        3.03756917
  602      1      11.46230609       16.12564177        8.98468605
  603      1      12.04220525        1.88261592       23.65035005
  604      1      17.55570405        4.20727869       25.20511640
  605      1      13.70848253        6.27094176        9.20384933
  606      1       3.57493170       12.25055605       26.53203312
  607      1      17.55330160        1.64387797       12.38442328
  608      1      27.16723704       17.11902694       18.85132713
  609      1      27.61989179       26.66292148       25.07613687
  610      1      16.23304578        6.82962314       15.75668368
  611      1      25.83761308       26.42449752       21.71488487
  612      1       4.46439080       12.74638885       19.44160845
  613      1      19.50844729        9.14719491       16.40493291
  614      1      25.36313243       23.27523460       20.09746760
  615      1      11.51743009       26.54124786        4.80282891
  616      1      18.01710460       10.47991579        9.96344331
  617      1       2.05884875       19.47158518       25.11627673
  618      1      13.65436698       26.15153238       10.17127401
  619      1       9.00626777       20.83094530        7.34286503
  620      1       1.99327347       19.96200965        7.15373727
  621      1      10.72499306       19.86604594       22.19592781
  622      1       6.88038500       22.83648121       16.95826455
  623      1      11.97308296        9.49328775        7.17458546
  624      1       5.79110010        0.91812080       26.67646003
  625      1      16.82557853       15.89044472       13.31528137
  626      1      15.28429687       11.35272962        7.11794135
  627      1      22.62040732        3.91395419        7.77547055
  628      1       5.80100907        4.28488906        9.61718454
  629      1      15.96199247       16.63318107       20.22062560
  630      1      10.63837888       22.03459455       23.39879750
  631      1      16.16687666       17.69524168        2.23220814
  632      1      20.65766732       13.55495967       19.04187493
  633      1      24.36905242        6.38675486        0.75672545
  634      1       1.10834922       14.52557232       16.84490305
  635      1       1.27791866        2.83077662       24.05353499
  636      1      17.86343291       21.97000286       14.90421016
  637      1      16.90364817       26.44875878       26.66881749
  638      1       5.68357242       17.66900117       25.99399213
  639      1       9.08373008        8.83999551        0.13538888
  640      1      23.60135157       22.10226348        1.19015742
  641      1      27.49579322        3.93008919       25.59956780
  642      1      11.00237656        1.21751135        8.92088156
  643      1       9.19347444       15.11806340        4.51935156
  644      1       4.61003179       20.12582987       20.14658381
  645      1       1.41146144        2.84827251       11.18530449
  646      1      14.49461855       27.11822467       21.88203553
  647      1      19.32243975       13.76204632       25.53485755
  648      1      21.32346181       15.79502474       27.45290103
  649      1      12.31957268       15.23175311       24.87701687
  650      1      21.49381762       18.31766509       16.70340501
  651      1      20.06879459        6.53443949       19.08934925
  652      1      27.00225062        9.80707745       11.46375760
  653      1       5.22993899       14.02975360        9.27645285
  654      1      25.37933637       11.99415176       18.14149656
  655      1       8.07283701       20.87797459        3.62340687
  656      1       2.04847743       12.81467812        2.25039295
  657      1      11.96480052       13.04659817        5.96217160
  658      1       6.67610787       16.06487738        1.83401678
  659      1      26.19753569       20.37999908       26.28327902
  660      1       7.86464956       22.67416471       19.07292415
  661      1      16.25136086        7.56173374       26.67482121
  662      1      19.39591374       18.54896153        3.35851561
  663      1       0.94267016       16.26227226        0.74042719
  664      1       1.23599363       25.41040454       14.20261057
  665      1      17.13577013        9.80455319        2.39626904
  666      1      14.97623396       14.51570989       17.56553487
  667      1      12.02748711       12.62447325        3.61051981
  668      1      13.01381838       19.87469727       12.99735299
  669      1      21.14167081        9.09087058       22.10941539
  670      1      20.68731140        4.96622726        8.81933005
  671      1      24.06966527        7.45102883       19.33914449
  672      1       8.57876860       11.77070048        6.82399118
  673      1       7.53857914       13.63451112       15.29905458
  674      1      16.38962387       27.30282748        7.48401990
  675      1       1.55310147       12.87332513       10.22789566
  676      1      25.65155023       11.67326324       10.65605474
  677      1       8.22043368        4.82030969        7.06616079
  678      1      20.43761611        4.75270945       17.59285350
  679      1      10.44864022       18.61404101        0.95912071
  680      1       1.92063807       22.77036405       22.07084390
  681      1       3.38377773        2.47561173       19.78914868
  682      1      12.64522178        8.62551907        5.01931906
  683      1      19.92004412        1.95919718       21.61785941
  684      1      15.32516321       23.83843498        3.78103049
  685      1      23.39752621        9.50511222       16.03011710
  686      1       2.31829300        8.83904391        3.17446153
  687      1      22.44084047       10.17905231        2.55382255
  688      1       4.26054059       12.32375519       24.33496766
  689      1      20.73191424       26.23976447       12.35810375
  690      1       5.29708180        8.62048193       18.90809242
  691      1      16.89907586       15.37741269       18.49712427
  692      1      20.93318926       10.24640326        7.18070640
  693      1      15.61384274        5.29447017       26.21009295
  694      1      18.98260897       17.83370378        5.77089030
  695      1       1.88882102       25.50984575       25.69580063
  696      1      21.33889217        6.53423160        2.15172547
  697      1      23.52508843        8.15550447       27.13452799
  698      1      19.01727591        0.67762558        5.15976854
  699      1      20.97166107       11.80126119        3.63136724
  700      1      23.49561477        8.32319075       21.70214630
  701      1      21.14494446       27.57419418        5.20807614
  702      1      25.00419933        8.75341133        8.62652374
  703      1      10.70914568       23.11436410       21.06737612
  704      1      10.50358377        6.76320548       12.07152398
  705      1      23.11184038       21.49646771       14.97760837
  706      1      19.27814788       15.82983769       22.03360628
  707      1       0.23761434        3.12551155        3.58362924
  708      1      10.77396859       26.76534110       21.40126144
  709      1      14.99667497       19.30240165       14.33609885
  710      1      16.41628342       27.59355406       20.59562281
  711      1      23.30474046        4.44825890       25.63522817
  712      1      14.52161053       17.39966336        0.43807335
  713      1       8.70351374        0.55985767       24.12267093
  714      1       5.45362853       17.71154711       14.60856670
  715      1       2.48289509        6.49568635       19.98525442
  716      1      16.29818396       20.08330315        9.79386042
  717      1      10.16437919       18.99164311        6.31150587
  718      1       1.39091202       27.58867692       13.41082221
  719      1      11.33216547       10.71091824       25.46815409
  720      1      25.51744753       19.52511716       15.95733879
  721      1       1.97817665       20.03381961       18.04388707
  722      1      19.13220620        2.60578593        3.80827839
  723      1       3.74740486       10.11242894       27.37242973
  724      1      24.02129685        4.80310335        4.27288917
  725      1      12.28776300       11.83620205       27.40845815
  726      1      10.08059264       13.38040196       20.25641525
  727      1      23.32140473        8.84457637        4.26054355
  728      1      13.69382911        1.92941223        5.96982906
  729      1      23.37442633        7.28568371        7.86620508
  730      1       0.11407209       16.07476210       24.37673102
  731      1      26.72190897        2.70656532        5.62316167
  732      1       0.39955794       21.22554058       25.12968428
  733      1      26.27155867        4.47755973       19.35622961
  734      1       7.23787691       17.95388797       17.86200456
  735      1       1.49319050       11.58279659        5.96044417
  736      1      19.18135885        2.04829200       14.21385156
  737      1       7.71912589        1.86030665       20.41186545
  738      1      20.95703108       14.36476017        6.44932539
  739      1      12.89123211       11.55390201        7.50158676
  740      1      13.76548292       18.67409855        7.79048547
  741      1      23.17694405       14.54286173        2.85149664
  742      1      19.20706814       11.46837970       15.94436984
  743      1       8.23150211       13.62725665       18.82373622
  744      1      22.92319714        6.77528981       25.27214285
  745      1       7.05345430       21.81296963       24.67995787
  746      1       3.36672713       21.37253775       10.63557850
  747      1       0.96203751        0.49412335       23.52530319
  748      1       6.07357802        8.75353206        2.51594799
  749      1       5.69282814       17.29947288       10.82279193
  750      1       9.98756672       26.23469459        6.54928271
  751      1      18.50791042       19.51231098        9.53871896
  752      1       9.22149099        1.73636652        0.07134497
  753      1      22.56916907        2.53358005       15.75083295
  754      1       3.76705044       20.29647112       23.85239280
  755      1      15.71596289        3.36473878        5.42346993
  756      1       7.12920347       18.86782710        4.42545157
  757      1      23.12572325       17.07815986       27.11699529
  758      1       3.81190854       20.26503622       12.70702755
  759      1      25.60915980        9.65403973       26.49143086
  760      1       8.79825799        8.96895159        9.37336082
  761      1       0.16669057       17.99003839       12.23610190
  762      1       3.15281967       17.18949444       14.03722246
  763      1      10.99267213       19.69619947       14.38764078
  764      1       7.43444660        1.67174159        3.65079761
  765      1       2.61422031       15.05756836        1.95837227
  766      1       3.74011184       17.77321908        4.12301819
  767      1      19.14981704       18.61972054       19.55377691
  768      1      14.59399032       18.12199970       25.87836533
  769      1      18.56023825       23.00721425       20.84287673
  770      1      17.11743880       16.51798330        6.52277879
  771      1      20.70543890        8.80129087       18.44973336
  772      1      24.74725000       12.92034218       16.00077462
  773      1       8.68348507       23.40249046       24.16086696
  774      1      14.02186778        1.91047150       18.61777900
  775      1      20.12020007        2.67733411        1.55803820
  776      1      10.45241334        7.19965287        9.73861529
  777      1      20.60199811        5.53735523       21.13997572
  778      1      15.57656784        2.88595418       12.91109140
  779      1      13.28980028       11.83410922       11.16854078
  780      1      19.41345338        9.10333235        8.71212218
  781      1       7.40072566       26.94984950       16.24806015
  782      1       4.78513401        7.70740802       10.00368288
  783      1      24.52014996       26.79220257        2.53715224
  784      1       3.64938800        5.99145505        0.49422178
  785      1       3.73470182        5.13753438       23.02641036
  786      1      13.60008855       23.58722072       17.64794805
  787      1       7.19692778        6.92326168        6.78444931
  788      1       9.79609860       13.71771002        6.33954090
  789      1       4.96446970        1.94159121       23.27557186
  790      1      27.24105545        2.17477096       20.31806478
  791      1      22.10348815       15.39805812       10.02499661
  792      1      21.51849887       13.50820004        8.64510878
  793      1       6.52933479       12.03496516       23.65318749
  794      1      23.94852573       12.22129392        5.98441474
  795      1       6.12409005       26.20281883       19.21912348
  796      1      27.47460736       25.06018836        2.43604511
  797      1      25.04643744       15.26604357       12.20152862
  798      1      25.71473658       13.67662642       21.93526839
  799      1      15.13630570       25.40954244        2.15472757
  800      1       4.53312629       14.27346591        5.42643101
  801      1      10.11479538        6.22854150       24.04028811
  802      1      10.67911739        7.49462339        4.33452420
  803      1      26.45235359        6.63918878       16.23479868
  804      1      20.06933344       20.86235420       23.67165167
  805      1       9.48406114       22.97609021       12.90229917
  806      1      21.07509812       23.60224768        5.93337485
  807      1       1.84618704        9.24699012       26.52228471
  808      1      10.74644539        3.41962161       17.70158465
  809      1      21.01265497        3.61514365       14.29539911
  810      1      21.00805320       20.10037622       26.95172903
  811      1      27.56636748        6.27664263        4.91751633
  812      1       8.52103742       17.04042541       21.51959596
  813      1      15.85826489        5.96952199        8.21078107
  814      1      16.53136879       11.83569839       26.77504919
  815      1       8.34596596       14.70884790       25.29231594
  816      1       7.59821229       24.68852048       22.52992962
  817      1      26.41017124        7.87599761       24.89664706
  818      1      14.53852543       10.96764959        0.04435481
  819      1      11.65151925        3.04457325       12.16258036
  820      1      10.84812174       12.38805544       14.41937958
  821      1       1.65126062       18.21562078       19.55020683
  822      1      13.77266748       21.02827835        7.66311433
  823      1       0.78929364       11.36854595       20.06685508
  824      1       0.74520717        3.65688434        9.00005080
  825      1      10.30537285       14.72775205        0.91594055
  826      1      27.40784134       23.89186096        8.92632055
  827      1       6.17270554        5.25578442       15.97392566
  828      1       0.87047050        0.90864790        2.97324883
  829      1       5.90516504        5.63594412       22.11170499
  830      1       8.83820453        9.65207532       11.72419141
  831      1      26.64568758       10.93453117        3.42198732
  832      1      19.58938464       11.26133138        5.46449169
  833      1       2.20041687        5.42460643        8.49920497
  834      1      15.50358780        0.01193071       15.22242863
  835      1       4.14210308        0.93228056       21.37594563
  836      1      25.86604923       12.29137356        1.66698399
  837      1       8.36891798       24.63580384        5.70682120
  838      1       2.67731477        4.44440914       21.04988763
  839      1       8.03096830       24.62097400       15.90905538
  840      1      22.02908763       26.71749607       19.80235262
  841      1      22.22393315       23.17844850       21.45425688
  842      1      10.30290156       15.36391221       21.62357565
  843      1       5.24042074       18.82948501        0.41752960
  844      1      12.27861758       10.19092361       20.45369790
  845      1      24.95894812       15.69544697       26.59446930
  846      1      13.28706015       24.81141168       24.94069240
  847      1       2.22642884        0.61570160       11.20528224
  848      1      24.32005341       15.53740440       22.72417782
  849      1       5.89040740       23.25042305       12.79466928
  850      1      19.12739814        7.95914484       12.45482698
  851      1      17.50411368       21.46239058        1.81133431
  852      1      15.64262917        2.41082162       15.21950848
  853      1      16.72067037       10.69308299       24.63606924
  854      1      15.32424018       13.21867130        5.57364814
  855      1      11.67264952        2.34977333       19.61181618
  856      1      11.41292324       22.56984299       17.28673231
  857      1       2.06957663        8.57051620       14.13572065
  858      1      23.20151081        0.77587008       22.87417538
  859      1       6.85338265       21.07065580       15.42444975
  860      1       9.02078392        4.33144569        4.99433205
  861      1      10.45430014       24.38609982       15.96403857
  862      1       3.34660936        5.25423361        6.34064625
  863      1      14.26882752        1.49809361       23.20827368
  864      1      20.22704852       10.23314898       20.28581081
  865      1      18.56913205       12.39755146       13.78406097
  866      1      27.24817818       26.36863109       17.92059856
  867      1       6.81280399        8.19027304        0.33123892
  868      1      11.04901482        5.26283084        4.49051898
  869      1      22.73954191        0.28907358       27.22970234
  870      1      23.48653600       16.83855716       17.32235099
  871      1      20.96797972        4.69035561        0.60327470
  872      1       5.28697411        8.64535834       12.07736521
  873      1      25.01633182       10.06660002       21.32008154
  874      1      13.89072531       16.36622177       16.62822113
  875      1       3.40159528       17.01146119       10.21022963
  876      1       4.44446373       15.25605120       16.76452884
  877      1      21.84257109       13.83562334        0.98001058
  878      1       2.95106811        0.93875165       14.85027534
  879      1       3.15152945        6.60621248        2.79854629
  880      1      26.12193833       27.63300614        9.25274578
  881      1       6.72275896       11.34616722       15.96002502
  882      1      15.10295044       18.44990442        4.21832065
  883      1      22.97035143        9.16820557       18.25843511
  884      1      13.79127182        5.82293943        1.93713484
  885      1       5.23179137       26.34934104       10.82369881
  886      1       2.75743325        7.05627878       24.11513837
  887      1       0.39777130        0.00120510        7.88543694
  888      1       1.96864577       24.57483398        9.15843203
  889      1      18.82220035       17.23655218        9.79862214
  890      1      22.46021719       16.72499907        3.04683960
  891      1       1.52059588       15.54786088       26.28543649
  892      1      12.25899912       16.60757286       21.02210937
  893      1      13.65916580       21.87437513       11.76659771
  894      1      25.89291586       25.75306417        0.61832157
  895      1      12.17344697       27.19057080       27.41064880
  896      1       2.86010159       13.83761041        8.63318390
  897      1      19.52832416       26.03137972       14.53959032
  898      1       2.96778749        8.87935683        9.03326907
  899      1      22.82974407        4.40480756       21.46232952
  900      1      25.24347709       26.57432601       13.35582401
  901      1      17.52717197        7.22683098       22.93097804
  902      1      20.80451137       23.90937139       11.78749340
  903      1      17.13862680       25.88757784       14.41550462
  904      1      26.67226455        5.98595700        0.92920601
  905      1      17.81893706       14.38456453       14.81404128
  906      1      14.24789911        8.76591668       27.01796697
  907      1      17.11730412       26.88084499       18.36042807
  908      1      23.93982063       27.61427475       20.80362249
  909      1       0.58966187        2.87520849       16.83115154
  910      1      11.30537528       26.49371820       16.64091282
  911      1       9.60584950       26.09528250        2.09498627
  912      1      26.72116277        7.80392465        9.97355698
  913      1       6.02068819        2.53401349       10.96810234
  914      1      20.38389978        7.79090682       14.63807429
  915      1      22.07545577       26.45268162       23.58356065
  916      1       6.76471117       11.33906521        5.37913404
  917      1      24.57804585       22.20261689        3.35962249
  918      1      22.20245494       20.22839691        1.32012825
  919      1      26.64869204       10.06843790       17.58071914
  920      1       5.41035211        7.39081911       15.51269819
  921      1      11.31334724       12.10458664       23.54529496
  922      1       8.90092180       20.91080641       13.97170128
  923      1      13.56911052        5.23917828       22.61169639
  924      1      17.51689531        8.51663096       24.94096440
  925      1      17.27734122       24.52627160        5.17288912
  926      1      26.11570812       15.07435895        8.57435895
  927      1       5.72008037       18.81905758       12.57988285
  928      1      11.67746567       27.64765453       14.47426858
  929      1      16.47095955       12.04149056        9.05741231
  930      1      13.65384796        1.26586540       26.74194582
  931      1      17.61915890       19.20309385       17.75877476
  932      1      19.60652535        1.16406906        9.31644760
  933      1       3.42627024       13.11654233       17.28800788
  934      1      19.99678110        4.41108730        5.02099168
  935      1       2.26097333       26.95007039        9.11066578
  936      1      20.97116732       15.73565777       20.10544171
  937      1      15.44015915        7.26945494        3.07647699
  938      1      14.89877930       10.62999673        2.31563521
  939      1      22.46346370       11.92739789       12.91837698
  940      1      14.70811323       11.81279267       14.42017458
  941      1       8.15024909       22.21471177        5.58408073
  942      1      15.72748846       17.16515560       15.15746291
  943      1       5.71650285       21.99764352        5.76429131
  944      1      12.63365659        7.79780005       19.96713106
  945      1      12.23098680        2.13641566        2.35623223
  946      1      26.06517468        4.19356260        9.40400839
  947      1      15.44575191        0.51540751       25.32076264
  948      1      12.48448405        8.27642581        9.17727701
  949      1      15.44399947       22.29806936       18.77243240
  950      1      21.38208836        3.22134114       24.96733721
  951      1      25.26961871       20.75365390        8.53525806
  952      1      10.37664518       21.66752092        9.22236272
  953      1       8.69098459        9.50440907       21.83409326
  954      1      17.98726825        7.49244486        7.45096123
  955      1       9.96079742        2.75247285       10.34471607
  956      1      23.63800089        8.07446533       12.71377637
  957      1      21.03465436       15.20840842       25.17858812
  958      1      13.46462832       21.70982676       27.04008426
  959      1      13.59949165       24.45164363        8.58731693
  960      1      15.18075000       15.96219685        9.74724608
  961      1       9.64181785       13.40658347        9.93813076
  962      1      21.04060527       17.13832903        8.93430921
  963      1      27.01226597        2.28108881       12.11439649
  964      1       6.09753793       27.14157521        6.82224886
  965      1       8.60512640       14.70131971       11.72860114
  966      1       8.01173471       20.88936800       26.58576260
  967      1       7.38114791        8.95449561       15.42023936
  968      1      18.34756711       11.28951460        0.74319250
  969      1       4.55504231        7.49952021       20.79181771
  970      1      11.74937484       13.20955056       18.53860841
  971      1      26.29299522       21.21412024       19.47370284
  972      1       0.34776459        8.08445359        6.42019119
  973      1      18.32812272       11.68852702       23.10581083
  974      1       4.61913449       22.95770839       17.65188828
  975      1      11.23268429       10.05115221       14.66367385
  976      1      25.10382023        1.48744955       24.07311467
  977      1      19.74043120       22.41482919       13.37123592
  978      1      26.19823475       12.28889798       14.14941976
  979      1      17.15516643       27.25093565       11.17728698
  980      1       0.93997020        0.68576212        0.59256082
  981      1      14.17143518       11.59685472       20.73055951
  982      1      23.22824064       25.91069757        7.70426800
  983      1      15.16880284        3.46391563       22.26036726
  984      1      24.21696860       13.50555271       25.82769520
  985      1      12.81243762       17.37069617       18.68598703
  986      1      25.81917068        4.85751039        5.73250224
  987      1      14.84139156        5.76764942       17.36982707
  988      1      11.55576500       19.84092723        4.61528754
  989      1       3.57020854        3.27146504        2.89808834
  990      1       8.60946503       17.32998047        5.53628001
  991      1      25.76892880       13.64295826        6.43380742
  992      1       3.94903497       23.67643962       23.14822711
  993      1      17.61524723       16.94920309       16.78959800
  994      1      13.28858990       25.51685246        6.26676373
  995      1      22.33644119       13.35856906        4.71847574
  996      1      24.52599562       18.53413215       13.87868761
  997      1      19.22472938       25.24845652       20.87624549
  998      1      12.23119284        5.32994424       12.55060074
  999      1      14.30630697        2.16934039        1.08261488
 1000      1      18.04160664        9.66013823        4.68297590
