run_id:  1002  total_energy:   -3023.495915483758

  1000 atoms
  1 atom types
  0.0   27.664  xlo xhi
  0.0   27.664  ylo yhi
  0.0   27.664  zlo zhi

 Atoms

    1      1       0.02767579       18.76259863        6.76471051
    2      1      14.63149302       18.54287176       19.62254450
    3      1      19.85391600       15.24317032       15.87471638
    4      1      17.40459086        8.34547242       17.15204576
    5      1      12.81884352       12.82792345       13.22444354
    6      1       8.84386820       16.63541312        0.74547321
    7      1      13.87290872       23.96585902       27.02138375
    8      1      24.93794316       22.94863906       12.36564401
    9      1       0.66052795       26.02332333        6.10748267
   10      1      26.73517576       27.53125115       27.09369365
   11      1      26.24047707       24.02293793       26.53259284
   12      1      24.73289189       12.82748750       12.65595663
   13      1      11.75214482       16.40162115       11.38973760
   14      1       8.75756145        2.79156116       23.39999686
   15      1      22.29653925       12.22216024       22.82847204
   16      1      15.99906964       21.58949954        7.98386387
   17      1      22.71750945       17.48726887        5.25722794
   18      1       5.63730298        9.39401241       26.30351421
   19      1      25.01494686       10.29943393        5.07358792
   20      1       8.65464672       12.93262089        1.26853306
   21      1      25.63532015       18.09952082        1.78773309
   22      1       2.99579793       23.65249016        7.19255576
   23      1       4.91367199        2.42996140       18.10705182
   24      1      10.40117820       14.33670660       23.85317407
   25      1       0.36937004       14.92922420       19.05657893
   26      1      27.41384285        9.48813716       21.19715222
   27      1      12.91774297       18.16041538        3.64347208
   28      1      22.34003388       19.11520306        9.32793497
   29      1      17.74943153        3.21474491       15.53536854
   30      1      27.30252608       22.38770346        5.60201296
   31      1       4.82414241       21.79258125       14.25997983
   32      1      16.68042254       18.81137198       22.84839360
   33      1      16.96700335        2.93155459        3.34150957
   34      1       9.67493219       16.74683877       12.33058739
   35      1       8.23775723        6.16007273       12.45295055
   36      1      15.75401151       27.18857711        3.59226155
   37      1      10.63745848        6.43151798       19.99425026
   38      1       7.02045542       26.90007618       23.09319241
   39      1      21.88107578        2.74105366       18.07466078
   40      1      10.72212675        0.53391196        1.30679761
   41      1      10.81108080        7.13879863       27.62404602
   42      1      10.61218063       25.35998726        8.62911730
   43      1       4.52571081        0.67401117       11.52421025
   44      1       8.91318736       18.74477819       23.16982693
   45      1       1.36240299       13.16412698       26.41038795
   46      1      23.72048490       11.00604653       19.49446694
   47      1      14.42062346        7.73125264       14.42339556
   48      1       6.62113482        4.99327756       25.70029339
   49      1      14.99012159       20.35070970       25.95621411
   50      1       9.76737864        4.91627007        8.87175020
   51      1       1.38547436       18.50808853        1.06948866
   52      1       7.36487178        2.41209921        1.28394656
   53      1      24.49475084       19.93341681       22.67507610
   54      1       0.34216920       21.48815101       13.33375899
   55      1       6.89697023       21.97731546       11.09315048
   56      1       4.56869913       24.41883681       19.64566021
   57      1       1.88536356       18.82721541        3.35037222
   58      1       5.76543917       11.76006178        9.29847651
   59      1      27.18706173       11.74116367        7.36136727
   60      1      23.34361211        4.41260953        0.21071466
   61      1       2.40461597        3.06985092       15.26736644
   62      1      18.78498586        0.71462032       23.30593555
   63      1       8.12148761       11.70261566        9.19971143
   64      1       5.50618925        0.00599066       17.50529473
   65      1      20.42456256       21.76133551       21.55315370
   66      1       7.07299868        5.13528686        3.59713723
   67      1      15.95751460       13.21355421       15.94115693
   68      1      24.43622753        7.22602009       23.54920085
   69      1       0.19351566       12.28652520       24.60371807
   70      1       6.71926212        3.49290753       19.07875655
   71      1      10.38359081       17.38156747       14.61310792
   72      1      13.73453513        9.68013889       17.33772435
   73      1      13.31054675       21.08069609        1.58746956
   74      1      24.84241277        3.52433519       14.79509703
   75      1      26.35726115        1.85178606       15.77919517
   76      1       2.65034007       10.68663301       10.63735907
   77      1       2.66122906       23.59515164       11.16344291
   78      1       7.70774173       20.03842370       12.18560886
   79      1       3.85425593       16.84177539        7.79463484
   80      1      23.74705357       26.56651762       16.59169141
   81      1       6.98225342        7.58067073        8.99027631
   82      1      18.80539149        3.98855691       21.35152670
   83      1      11.03836766       18.93800325       26.27479711
   84      1      14.76947387       27.41118043        5.79784668
   85      1       0.70769768       21.97250768       18.56921858
   86      1       5.67081889       17.97034375        2.77046395
   87      1      26.81364117       25.13795396       19.91191499
   88      1       9.55998301       15.00280221        8.23358875
   89      1      25.27252290        3.78799028       24.48022128
   90      1      24.21439614        5.80898205       15.86425089
   91      1      11.77670401        4.50704441        2.40249443
   92      1       0.56293061       12.58799587       15.64819337
   93      1      20.01444522        0.35859614       15.58251429
   94      1      16.09911556       10.23236727       20.33478450
   95      1      22.82853118       14.21971413       24.05525286
   96      1      17.72903958       20.80550844       23.71943581
   97      1      10.12670907       19.72530120       19.82476754
   98      1      12.98990632        9.51690373       11.18150384
   99      1      25.52130889       10.08091473       15.27092743
  100      1      27.52575271        6.23510081       26.29950155
  101      1      22.77346641       11.61286065        8.02945923
  102      1      15.04390374       26.01899016       24.02393827
  103      1       8.99917322       14.67416601       16.86126505
  104      1      18.91817224       22.89313506        5.06731258
  105      1      17.89937547       26.50375192        4.10876399
  106      1       2.92485169       25.46448503        5.77845917
  107      1       9.68500424        9.93621901       18.11885870
  108      1      11.19308293        5.28016588       22.06546290
  109      1      23.77488194        1.41308907        2.61063345
  110      1      16.05596726       24.51020760        0.01422766
  111      1      13.84537942       13.59088887       19.47897633
  112      1       1.78749199       15.70035319        7.48497151
  113      1      11.11389331        6.84835742       16.45591366
  114      1      12.86519367        7.74305986        0.94846949
  115      1      23.82154692       24.45294997        9.46752167
  116      1      17.20229548       14.59273963        5.21622596
  117      1      19.84418074        4.87320578       25.93160249
  118      1       8.75270866        2.58179669       14.39043819
  119      1      18.94368100       18.95242097       13.05753079
  120      1      10.62333813        0.69478457       16.22997096
  121      1      12.60174276        6.01453144       14.67642144
  122      1      18.14234721       15.14708955       27.07322574
  123      1      26.95520328       14.25886972        4.59660077
  124      1       5.83860539       19.24833186       16.49339649
  125      1      14.46972926        6.75516172       21.01557589
  126      1       2.63869650       12.33923371       20.87903332
  127      1      19.65056255        6.30317753        3.72672669
  128      1      11.12222706       13.90875748       16.26788083
  129      1      20.92809615       16.69341150        6.59213345
  130      1      14.92648984       22.17758049       21.01039722
  131      1       5.07052153       11.01972981        7.08169974
  132      1      14.91814832       17.21339513        6.22077267
  133      1      25.16513336       25.21705569       15.24167283
  134      1      16.86802196       22.72992778       22.48512429
  135      1       5.23801615       23.21149756        7.66127112
  136      1       6.05705216       20.96595450        0.35755495
  137      1       9.50267955        2.01990063        4.92854826
  138      1       3.01000883       19.43857137       27.32294697
  139      1       6.28510808       15.03156769       11.21500343
  140      1      13.00866611       15.81197301        3.84366332
  141      1       9.61105040       24.45282587       26.17840972
  142      1      26.87997808        0.67525717       13.77775225
  143      1       9.16182752        9.67187322       25.58503263
  144      1       3.88893646        9.02625876        6.86408546
  145      1      17.17371805       23.48468624       10.81522315
  146      1      21.62741534        8.60429978        1.01325365
  147      1       1.83431209       21.88064792        5.96045889
  148      1      11.42518305       26.93709466       10.19822912
  149      1      13.85190969        1.94656533       11.84130730
  150      1       7.35592512        1.19259835        7.88112441
  151      1       0.40020259       12.15530232        0.60233146
  152      1       0.09364006        9.15435104        2.39748937
  153      1      15.44923745       20.61222343        4.75635248
  154      1       7.78794417       25.61901807        3.64982610
  155      1      14.08162400       14.35098246       23.39429937
  156      1      24.70428304       17.67055227       19.20987096
  157      1       2.07018409       24.88826521        1.71196700
  158      1       8.72774199        8.30996209        5.40535441
  159      1       1.27482516       14.17528556       12.24983467
  160      1       2.11100476        6.90610576       26.37475440
  161      1       4.26627295       20.59085977       17.93249421
  162      1       5.51608668       16.34056159       18.47297322
  163      1       5.13943394        1.18817862       13.81075429
  164      1      27.45650224        7.08285103       14.33906047
  165      1      13.34785373       14.87841144        8.55738995
  166      1      19.43033026       23.57469193       26.72293232
  167      1       5.83878843       15.26096784       14.90798687
  168      1      11.02468262       18.58371959       17.94093239
  169      1      14.66973412       18.29016532        9.86268132
  170      1      26.60679340        7.24779040        3.01086695
  171      1      11.50846203       24.51164771        2.78325280
  172      1      20.64874483       15.34937156       12.08525983
  173      1       7.36482010       17.98281693        9.30351964
  174      1       1.74098336       14.47542940       21.27792397
  175      1      16.35143070        9.19980262        6.28340123
  176      1       2.23977627       21.12486747        3.70249432
  177      1      18.12387133       13.59806316        8.55665216
  178      1      25.71365233       23.30817645       22.57779178
  179      1      11.51337742       18.24114906        8.05358385
  180      1      25.54483588       18.07884492        4.07182206
  181      1       8.09295539       24.93748130       19.35502041
  182      1      22.53225355       21.03409234       18.70134243
  183      1      15.40598332       21.74915434        2.77006120
  184      1      21.12976006       26.85778618        2.96530021
  185      1      24.95494557        1.47636884       19.38564840
  186      1      21.93081136        8.33538554        6.15186498
  187      1       0.82317943       23.33800852       26.25208159
  188      1      12.56975825       18.38816786       22.58399874
  189      1      17.45594362       22.57969538       27.41993916
  190      1      14.93679092        5.55311561        6.02297045
  191      1      14.25674715       25.61234362       12.32388914
  192      1      10.77578999        3.01255322       21.98312376
  193      1      25.73335993       25.25036013       24.07961865
  194      1      21.80019548        0.96358800        1.62448039
  195      1      10.26538463        3.54012123       26.71960034
  196      1      18.01722427       24.70981587       17.48076855
  197      1      20.89790294       20.77719436       17.03843691
  198      1      16.54461946       25.37433036       12.23375960
  199      1       3.48538148       26.95195973       16.48036704
  200      1       1.24855605       18.08357766       10.18882701
  201      1       3.98817688       15.92386939       26.19843056
  202      1      16.03703858        5.77243683       19.38169196
  203      1      22.04014860       20.54457068       11.24660560
  204      1       3.75440933       24.85010515        3.47195194
  205      1      18.32033035        5.73251781       12.32633652
  206      1       9.15610468       10.58489252        1.85629169
  207      1      26.78059560        5.52094415       21.30107031
  208      1      26.26663743        7.92985329       18.31463406
  209      1      26.88029343        4.87983879       13.20231593
  210      1      12.94078869        8.97134835       25.08894663
  211      1       4.70011071        9.26853439       22.34235053
  212      1      24.78189009       22.19127980       26.76197866
  213      1       0.17085437       17.86505206        4.69356510
  214      1      23.17311694       16.70378663       20.94154367
  215      1      13.26061496       25.81896926       18.34070426
  216      1      14.13621321       15.24370073       21.17889101
  217      1      26.26120656       15.97298015        0.99047359
  218      1       4.85977282        3.19486521       26.43492403
  219      1       3.80775378       18.62929983        6.34896597
  220      1      20.47992443       10.71233915       23.77382640
  221      1       9.90277271       22.32384220       27.30271359
  222      1      11.38313688       25.98661841       25.52459555
  223      1       1.73528277       12.31030811       13.61147153
  224      1       9.78034882        8.80566085       16.07901933
  225      1      17.29554377        3.76816131       19.55853375
  226      1      16.55483558       11.44489272       12.90307655
  227      1      25.54575369       14.40191193        2.60650739
  228      1       6.14266189        5.98120989        0.11396984
  229      1      13.64448920       12.03998021       22.97339650
  230      1      26.68772303       20.18959943       21.57367071
  231      1       7.62736009        5.66033537       10.19459874
  232      1      22.61478020       19.77933675       13.46111529
  233      1       4.39923989       12.16897027        2.33657207
  234      1       1.11256949       19.02474678       21.62505383
  235      1      21.39448310       16.13266405       14.12303847
  236      1       1.81543245       27.06493221       18.23807371
  237      1      17.06365696       24.91285044       23.61673345
  238      1      20.05756611       24.00896987        1.30803736
  239      1      14.30076446        6.22386144       11.33701300
  240      1      22.29413683       25.23235745       17.97109878
  241      1      14.67012604        9.94830749       23.66383932
  242      1      19.55638237        7.84620390        5.39331664
  243      1       5.40566395       18.66884819       23.73973358
  244      1      24.84175257        2.73552293        0.90552961
  245      1      12.16075941       12.85191499        9.40219931
  246      1       6.88441856       24.98566160        7.51918045
  247      1      19.02957036        5.07984753        7.11563979
  248      1      12.29825023        3.76436371       15.59551351
  249      1      22.54464232        9.82439543       11.62596900
  250      1       1.41681098       18.84835779       16.11195813
  251      1      16.08599326       14.14931564       26.59582071
  252      1       2.99848492        1.15249745        3.74936201
  253      1       5.17998217       13.10399158        0.26188110
  254      1       5.68867151       23.43325147       21.58294160
  255      1      11.83635875        6.82920593       25.43688060
  256      1       0.98928401       15.75879941        5.22751582
  257      1      24.28490771        0.30064569        7.87104792
  258      1      24.65979748        5.18806704        7.75971670
  259      1      15.49692007       27.58545853        9.54450938
  260      1      23.37960712       18.15988710        1.44226739
  261      1      21.13411596       19.94525619       20.30899040
  262      1      25.53539198       16.70680747       24.53946982
  263      1      24.89050952        1.25514303       26.64774704
  264      1      19.94875030       16.88127321       24.08090262
  265      1      12.83032035       18.70986713        1.45966036
  266      1      17.48917126       21.19351106        6.12940814
  267      1       7.55899886       26.70339225       10.77528223
  268      1       9.32689660       24.87804525       21.28465587
  269      1       6.93343047       19.96631577        8.23014202
  270      1       5.45896608       21.55096794        9.35148481
  271      1      16.41856467        3.69522158        9.38279175
  272      1       4.88654838       10.93923216       11.63782786
  273      1      21.78084965       12.00914476       20.41458285
  274      1      16.03860094       21.52374243       11.60203649
  275      1       0.01511724        9.84075062        0.12469264
  276      1      22.27119009        3.78681382        5.47664074
  277      1      17.81981008        7.24997931       19.15580500
  278      1       4.87184554       17.13551937       21.97138434
  279      1       8.92736851       22.99392326       10.57759708
  280      1      20.33239183       24.70370678       16.49761602
  281      1       9.64413121        9.66908269        7.06951228
  282      1      26.74883664        0.83475832       22.33281717
  283      1       1.99918274        4.98780498        4.25353981
  284      1      20.91063756        1.12978420       26.03309468
  285      1       2.60619943        5.86301582       17.64642905
  286      1      22.80047736        7.69969428       14.83414525
  287      1      15.51122770       12.63196505       11.14275537
  288      1       4.38138260       14.67434860       24.25392603
  289      1       1.44588104       10.29929611       24.30949045
  290      1      21.41312940       25.36924221       21.61773616
  291      1      10.38200002       11.17798378       21.54390830
  292      1       4.08488506        4.12121722       16.62867274
  293      1       2.86194246       20.62248744       21.73267760
  294      1      23.43300904       25.69493356       27.21642584
  295      1      20.68725924        1.01744050       19.43147914
  296      1       0.10472629       14.08114315       23.01160041
  297      1      17.84940122       17.53120508       21.25410317
  298      1      14.29182825       15.01657112        0.25655258
  299      1       0.54336799        8.44586297       23.32448938
  300      1       4.76865320       27.06919694        0.58955384
  301      1      19.36409985       25.32178650        8.55495610
  302      1      14.67183467       14.65147035        2.50490350
  303      1       7.24670551       11.04235017       25.63347726
  304      1      17.25570151        4.36776778        1.56027934
  305      1      19.95757524        7.15651302       22.61133278
  306      1      16.70619444       23.93307763       15.57431076
  307      1       4.08517124        9.92518043        2.03069499
  308      1       1.58056197       20.31469926        9.46242798
  309      1       9.46528349        0.84228913        7.00802106
  310      1      24.92489283        1.08407028        5.80023221
  311      1      20.13971496       16.94019006       18.11576947
  312      1       0.94737934        2.99559155       27.61985802
  313      1       3.11239720       10.97260783       22.77569147
  314      1      23.76907341       22.17901040       22.99830042
  315      1       1.33151502        1.65221897       18.76339481
  316      1      14.87281207       27.43921557       17.54966131
  317      1      13.23036135       21.41842646        5.43408118
  318      1      25.71849689       18.99007468       11.90614378
  319      1      24.64703200       18.47197417        9.77395073
  320      1       4.30179125       24.80083468       12.36850719
  321      1       7.76971188       24.42263323       13.69892925
  322      1      12.53236436       17.61097845       24.87842204
  323      1       2.04008814        9.35629900        5.52080127
  324      1      20.31244135       13.02046336       12.28512372
  325      1       9.86467302        0.66621703       20.02358072
  326      1      23.79339314       22.59855481        8.05246110
  327      1       8.33342163       26.54246499       12.88881109
  328      1      23.45950527        5.99385107       11.51797263
  329      1      14.83571956        7.73006489        5.19792686
  330      1      21.39318623       22.43541755        7.95822969
  331      1      23.77963354       16.27673590       13.96563062
  332      1       3.78211765        5.21467539       12.52302067
  333      1      22.56015530       18.78354066       21.81890777
  334      1       0.63771985        3.79146620       21.91767179
  335      1      11.08227188        2.67069010       13.77604138
  336      1      26.36257561       21.21269111       11.75677078
  337      1      19.70997727       20.60507140       11.47376761
  338      1      24.83174995        5.18170198       22.61135277
  339      1      19.90820578        4.39331151       11.00692686
  340      1      19.05022365       19.71616257        7.18371200
  341      1       8.75302576       13.08379053       13.42215929
  342      1      11.44983151       11.05068268        1.92032224
  343      1      18.73086221       19.16330801       27.07025353
  344      1      26.87135102       15.90339915       15.43628011
  345      1       3.50883851       25.84397260       23.99546901
  346      1      10.10185272       21.93343795       19.21009915
  347      1      24.10024963       10.93192381        0.85502575
  348      1      13.47778713        5.11303224       25.05056410
  349      1      25.88852926        8.62634891       13.47997274
  350      1      26.24809915        9.59352689        6.92584856
  351      1      18.23813062        1.12892524        7.26396159
  352      1      26.81748694       22.92316284        3.33213370
  353      1       8.09026325        0.28181269       26.42103980
  354      1      12.96941520        2.33606923        8.18947779
  355      1      19.75316113        8.97782143       25.45294084
  356      1      16.10825324       14.88741957       24.34500230
  357      1      19.75996409       12.47429536       10.03100970
  358      1      18.18111066       13.26442245       19.17106314
  359      1      22.62444463       18.80871746       25.63934756
  360      1      25.93413766       25.32500635        9.90866294
  361      1      15.12975109        4.38768395        0.65288272
  362      1      12.37219395        3.03179270       25.68773343
  363      1      10.16683757       20.38070590        2.76362283
  364      1      26.26387913       24.83769429       12.05452881
  365      1      16.18669399        1.14878552        2.08607494
  366      1      19.00435527        0.73707790       17.78096560
  367      1       6.61102317        6.73783078       24.01924122
  368      1       6.63728509       15.67936653       21.69619686
  369      1       8.37348620       25.86905894       27.57754027
  370      1      15.44693184       20.04534722       18.06288681
  371      1      10.83603736       27.48064916       23.76090199
  372      1      26.93656461        3.73533641        1.46670007
  373      1      23.15932546        5.74623373       17.99815102
  374      1      14.38600012       12.58767051        3.47527883
  375      1      16.83688831       15.45841447        2.98644517
  376      1       6.21750691       14.46728057       19.71474641
  377      1      26.12749730       20.50557268        6.44019844
  378      1       9.07072461        8.24167492       19.74117431
  379      1       3.96048474        7.35816240       13.56656628
  380      1      27.04563331       12.80950326        9.50445013
  381      1      24.64873562       19.94105626       18.28693865
  382      1      12.73055450       22.32647257        9.43516150
  383      1      13.00816519       23.62951187       21.38288776
  384      1      23.93269385       10.49913581        9.80144191
  385      1      18.10438789       11.36311201       20.76856509
  386      1      14.24354597       20.59662436       16.09564720
  387      1       5.82745908       19.70580741        6.21372778
  388      1      27.05630339       19.76320022        0.83033599
  389      1       4.13738944       17.75075728       19.87425197
  390      1       1.06856619       10.93970120       17.34445806
  391      1      11.12007736       22.27193321        1.77273900
  392      1       1.58134442       17.62130186       23.50005720
  393      1       3.76073894       27.27337026        7.11308225
  394      1      26.73053962       21.59691494       15.26085077
  395      1       7.47985682        0.54464877       14.35663081
  396      1       4.53596493       27.17732811        3.03395391
  397      1       5.50576602        3.55259243       13.01956128
  398      1       5.62380510       15.33730117        7.33166122
  399      1       6.24710069       27.66247504       20.97052916
  400      1      27.05640531       17.92510256       16.56408611
  401      1       8.98321157       18.52700673       10.92496017
  402      1       7.90744367        1.32981283       10.18062710
  403      1       1.81167398        4.18485460       13.19953033
  404      1       5.67138027        3.32748761        4.04275875
  405      1       7.41094331        8.30028433       12.97015557
  406      1       1.05176871        7.48084263        8.66400178
  407      1       2.72345382        9.66628622       16.11146754
  408      1      25.31257180        2.24116976       10.42309669
  409      1      19.32123885       26.82015196       10.37724940
  410      1      18.43050998        2.72365135       10.45106392
  411      1       7.63167783        5.29586089       17.75416700
  412      1      18.32625908       17.20039177       25.82659322
  413      1      11.84599873       10.82837515       18.32174402
  414      1       6.14545137       25.17820939        0.22454780
  415      1      14.49180047       21.23827385       23.89649194
  416      1       3.08303188       15.62882305       12.24755777
  417      1      12.21534051       14.21763639       27.12606340
  418      1      21.67040189        1.56316935       10.67326800
  419      1      22.95174865        0.00259951       12.91601905
  420      1      10.65358503       26.50972907       12.58577448
  421      1       6.61532378       10.49231517       21.74482683
  422      1       0.61853980       12.43663419        4.11243062
  423      1       7.73705057        9.78829502        3.78585445
  424      1      19.62353415       23.30396744        9.81658802
  425      1      20.73259364        8.46185533       10.67574224
  426      1      22.39332481       24.11948960        1.02098656
  427      1      17.25785163       20.74080087       26.02574614
  428      1      12.73866210       18.53674501       11.19786730
  429      1       3.46094307       25.12137898       14.78445079
  430      1       5.84606748       12.99649571        4.03476847
  431      1       7.41088363       12.99939334       26.95049175
  432      1      24.90791197       22.92406085       14.62735025
  433      1      22.85233266       22.89161782       11.21519335
  434      1       3.52572064        3.32191915       24.42371359
  435      1       0.71551635       22.86710153       16.43265512
  436      1      21.07190123       25.76454735        6.86978753
  437      1       8.41690904       24.99907542        9.40038044
  438      1      15.96030980       23.78094956        8.75030684
  439      1      12.98310781       25.38137654        1.14218955
  440      1      20.71731281       13.11923232       16.67109409
  441      1       3.85372755        7.91737239       17.13987229
  442      1      17.27305780       25.16624646        7.45022572
  443      1      17.30994674       15.81498307        8.72469563
  444      1      10.10543042        5.07586207        0.82320775
  445      1      15.23274370       14.93627436       11.83316434
  446      1      11.01807273        9.14528691       12.49312355
  447      1       4.36772834       22.29466441        3.81042751
  448      1       4.92752502        7.04986946        6.00401601
  449      1      24.87551128       19.00431590       24.80438519
  450      1       6.45575152       27.36181297        4.37165786
  451      1       9.24565677       26.72022619       18.40829582
  452      1      27.55848331       26.70743388        4.05788798
  453      1      19.63394645        9.32174413        0.05173274
  454      1       1.93211851       22.86934254        0.55519689
  455      1       5.94014964       10.78688735       19.47938531
  456      1       0.55525414       21.62722514        2.02184192
  457      1      17.30020009       11.95183359       17.32058431
  458      1      11.19564428       24.42002027       13.73575298
  459      1       4.63912719       15.22837153        0.69256470
  460      1      22.04778427        3.97351303       12.16890295
  461      1      20.15486915        5.55958947       15.37212357
  462      1      19.81028879       12.86874332        1.86376198
  463      1       4.38519916       11.44639033       15.74801641
  464      1       5.24119945       27.52364541       24.52809487
  465      1      13.08181471       15.12673368       12.93129512
  466      1      23.11942194       22.76987571       25.13965250
  467      1      17.13640836        9.33444313       11.93906687
  468      1      24.60315740       20.21209370        4.69893019
  469      1      21.84358019        2.64254059       22.68950565
  470      1       7.75140349       16.41719481        7.59756601
  471      1       5.33658854        6.87374975        3.68917669
  472      1      25.62204762       11.67339685       25.05774098
  473      1      22.87110999        1.62773689        4.86355128
  474      1      22.50359773       11.99995122       15.41824329
  475      1      27.54014288       21.91502366       22.96689746
  476      1      11.43305548       21.22058206       25.95502827
  477      1      15.71225888        2.23904161       20.22496289
  478      1       7.74748470       11.38708618       18.12593139
  479      1      22.79873614       12.31831049       27.22453462
  480      1      11.84501160        1.29279342        4.50184815
  481      1      12.23198952        4.64684082        8.30969873
  482      1      22.32236362       19.81339083        5.21143571
  483      1      14.47184245       23.03951098       15.52075426
  484      1       6.71477850       14.41546337       23.62045409
  485      1      17.89548208       19.14595064        1.65075559
  486      1      18.70338634       14.96828129        1.71640562
  487      1      24.64187212       24.99999750        6.04016840
  488      1      19.44010474       22.25242944        2.88784191
  489      1      16.17223561        4.90772095       11.59069252
  490      1       9.26836955       17.12423669       16.83220090
  491      1      12.17521032       15.77546099       15.12527950
  492      1      11.88993185       20.30117769       16.46546984
  493      1      27.22529968       15.76312647       13.02130748
  494      1       3.21610065       23.02007057       15.74101748
  495      1      19.10511502       26.11115791        2.12201283
  496      1      17.73744369       22.74620147       18.65585842
  497      1       0.05968778       16.93896828        8.45317482
  498      1      23.47912058       25.11356410       24.95791105
  499      1      20.16666698       27.11474359       24.65438275
  500      1      24.60819016       15.48578339       15.95065862
  501      1      18.88910307       13.35818053        6.32198774
  502      1       6.38674245       21.97669045        2.39638305
  503      1      18.16427725       14.03042043       23.45452702
  504      1       1.69353744       19.36364305       13.62470761
  505      1      22.38756616        0.33871772       15.24384554
  506      1      17.91287898        5.38331294       14.70587923
  507      1      16.03737471       10.04107923       17.98061754
  508      1      22.06681639        6.75546814        9.73119292
  509      1      12.89084649        9.36797147        2.65403446
  510      1      13.87558378        0.00863730       13.43320263
  511      1       3.02399935       15.59340509        4.17150449
  512      1       2.48515992       16.43767247       16.15101663
  513      1       8.66930066        8.05685643       23.80558448
  514      1       7.91629933       16.80909421       26.26130622
  515      1      17.85685454       26.58424225       22.13567257
  516      1      12.71726331        4.79145981        6.03600848
  517      1      13.19622344       23.71302144        4.67446259
  518      1       7.09236860       20.15205998       23.01020710
  519      1       1.36243956       10.18169022       12.55040567
  520      1      10.03155954        5.26760796       17.88911891
  521      1      18.62507989       25.42216462       25.41398616
  522      1      23.22516508        2.01307205        9.03753524
  523      1       3.95115128        5.54116702       10.14948386
  524      1       3.10054951       15.90976063       22.69615891
  525      1       4.09653671       12.23599313       13.52884602
  526      1      16.33686070       17.25401249       24.62274900
  527      1       2.49976986       26.56695172        0.09539965
  528      1      12.87855342       25.92293524       20.73691242
  529      1      20.93051183       18.41860960       14.35944283
  530      1       3.89543151       21.79510817       27.19140512
  531      1       4.64572915        3.33122427        6.15399912
  532      1      14.85179948        8.32429959       12.15157023
  533      1       7.35032111        7.63009490       18.12937479
  534      1       6.48383684        3.35105211        7.54357892
  535      1       4.87373343        8.18505608       24.38084664
  536      1      14.31768569        3.46882164       16.73822889
  537      1       3.22513322        3.69661868        0.50425205
  538      1      23.75002051        6.77587588        3.07796970
  539      1      18.57542703       21.16655614       17.06062302
  540      1      21.08991387       22.64647713       15.38628301
  541      1      23.70309611        3.73942778       19.34388586
  542      1       1.16507150       23.82624076       20.13748487
  543      1      12.89763739       22.95755503       23.67332929
  544      1      13.38920394       23.67097491       13.38859656
  545      1       2.57437331       25.66895618       20.03207054
  546      1       3.02317051        1.58678017        6.09792896
  547      1      24.68155901       11.71198104       22.85599055
  548      1       7.94822360       18.88371113       19.92708664
  549      1      10.88148220       19.45488043        9.95961430
  550      1       4.65583306       22.16369762       24.89859409
  551      1       3.39786336       12.62060281        6.72045948
  552      1      23.89362132        2.38799674       12.66355192
  553      1      17.62558696        6.38080817        2.52381119
  554      1      18.53891186        3.09764096       17.70266187
  555      1      17.56165747        1.81926788       25.19866791
  556      1       6.72910458        3.20456039       22.31577151
  557      1      18.99120146        1.64540426       27.30496870
  558      1      17.79627146        7.94586438        0.78673810
  559      1      23.11034436       23.26843752       19.29370158
  560      1      22.80409304       25.30125011        2.90119027
  561      1       0.10858400        7.41702979       20.12836028
  562      1       7.72091507        4.75968303        1.41605509
  563      1       0.78007558       23.79158736       12.59949119
  564      1      20.28553266       16.71605185        2.15057469
  565      1       7.51335673       11.56335534       12.07502657
  566      1      26.84649712       24.28767404        6.72058426
  567      1      26.70490594       13.09150294       19.75292081
  568      1       0.85332244        2.14269835        7.11483566
  569      1      17.39829976        3.28410306        7.15513278
  570      1      27.40734815       25.02672676       16.02611939
  571      1      20.89704193       22.02985438       25.61408902
  572      1      13.70138088       14.89611421        6.12092222
  573      1      16.90951810       20.36247626       13.49881734
  574      1      25.51978165        0.30860610       17.42297218
  575      1       2.56870024       26.97315365       22.13876706
  576      1       8.90729699       18.76865728       25.53448209
  577      1       6.25737054       24.40655350        2.37957111
  578      1      13.12677188        7.42655921       17.68995302
  579      1      14.57317826       19.59615986       21.88003798
  580      1      15.69425488        8.50351501       21.94898405
  581      1      27.18753757       21.58688368        9.61865537
  582      1      21.23723153       18.75575803       23.74768322
  583      1      23.21179462       23.76494461        4.62864735
  584      1       6.63998503       21.06927103       20.80211388
  585      1      24.44189107       15.96824451       10.12485694
  586      1      20.63591864        6.86418158       24.85729468
  587      1      14.70797447        2.04868210        9.66518770
  588      1      25.87642189        5.80762451       11.15880446
  589      1      13.56010047        9.82646577       15.11367930
  590      1      17.19454297        4.73806215       22.95904921
  591      1      21.35512354       20.22881823        7.37119867
  592      1      18.68610036       16.80158372       12.07441348
  593      1       4.89443184       14.39501103       12.99688859
  594      1      11.06943053       14.74938520        3.11810105
  595      1      20.90653122       20.33757093        3.27733781
  596      1      17.85015885       27.64551491        0.74635353
  597      1      25.37258747       26.80948537        4.66363890
  598      1       0.19682072        4.97699918       17.52117893
  599      1       7.39352945        4.46810507       13.97292233
  600      1       8.90513956        4.41178976       25.05985275
  601      1       7.54727732       14.20859315        3.03314165
  602      1      11.46055227       16.13526476        8.98188834
  603      1      12.03489556        1.85938236       23.65972392
  604      1      17.56106276        4.20209089       25.19799665
  605      1      13.75587854        6.33691128        9.11943556
  606      1       3.56178734       12.22793536       26.50200922
  607      1      17.61537656        1.67659915       12.35241008
  608      1      27.14044174       17.15739917       18.85596623
  609      1      27.60734717       26.66394904       25.07761811
  610      1      16.26713601        6.84036458       15.73238677
  611      1      25.83294658       26.42246224       21.71341613
  612      1       4.49928976       12.68012289       19.41083474
  613      1      19.49911690        9.17354581       16.40304544
  614      1      25.36506407       23.28615900       20.10742471
  615      1      11.53111858       26.53844693        4.79277787
  616      1      18.05143214       10.47994544        9.95850343
  617      1       2.05072269       19.44170646       25.11667798
  618      1      13.65902610       26.18452070       10.13352726
  619      1       9.00815007       20.83578205        7.35005445
  620      1       1.98549541       19.93830976        7.16017236
  621      1      10.72759484       19.81794332       22.22927636
  622      1       6.87925367       22.83606788       16.96902630
  623      1      11.97211994        9.52077390        7.13509143
  624      1       5.78103119        0.92581249       26.71080357
  625      1      16.78753986       15.90937918       13.29447072
  626      1      15.29523463       11.35026876        7.11586112
  627      1      22.66579186        3.91872680        7.79687811
  628      1       5.83775186        4.28346340        9.56839337
  629      1      15.95331139       16.61859018       20.23152616
  630      1      10.64232951       21.96487496       23.49230403
  631      1      16.17138784       17.67782049        2.24010506
  632      1      20.59606561       13.57962384       19.08899430
  633      1      24.37573878        6.39220016        0.74802097
  634      1       0.85818467       14.70765022       16.67146192
  635      1       1.24725627        2.84586267       24.04095861
  636      1      17.86142660       21.99052446       14.90781292
  637      1      16.91591151       26.44008226       26.68237775
  638      1       5.67319699       17.63341957       25.99349363
  639      1       9.07289669        8.82731497        0.11378687
  640      1      23.60465270       22.09268955        1.19306718
  641      1      27.47652994        3.93477575       25.59134941
  642      1      11.02341717        1.23770109        8.82403225
  643      1       9.18783710       15.11407946        4.50780374
  644      1       4.60927058       20.10083381       20.15361691
  645      1       1.38813918        2.71663258       11.15475908
  646      1      14.50838347       27.09579330       21.93663042
  647      1      19.32834511       13.74631521       25.53969254
  648      1      21.33293739       15.77501494       27.46353851
  649      1      12.31717423       15.19755504       24.87650190
  650      1      21.42921202       18.41645947       16.70316379
  651      1      20.12169732        6.52628951       19.06686242
  652      1      26.91105675        9.66535134       11.70745236
  653      1       5.22771633       14.02409275        9.28654888
  654      1      25.29581271       12.04165408       18.19827792
  655      1       8.06802620       20.86007031        3.62930905
  656      1       2.03266053       12.79415792        2.26862674
  657      1      11.96721823       13.05456639        5.95011560
  658      1       6.66315070       16.03925893        1.83112669
  659      1      26.19622229       20.36654256       26.28869880
  660      1       7.86684320       22.51815769       19.06263158
  661      1      16.25942980        7.55139598       26.66970912
  662      1      19.40296510       18.53439098        3.36173734
  663      1       0.93824498       16.23952940        0.74067189
  664      1       1.26178152       25.40973337       14.20494545
  665      1      17.15928309        9.80080914        2.39959841
  666      1      14.95088309       14.51501226       17.56360538
  667      1      12.02813927       12.61332045        3.60114055
  668      1      13.01302214       19.89488308       13.00116838
  669      1      21.14165317        9.08391235       22.08998479
  670      1      20.76078253        4.99247624        8.83746899
  671      1      24.07200606        7.55604037       19.21008724
  672      1       8.57216956       11.78185539        6.79927420
  673      1       7.54363724       13.62074047       15.31211622
  674      1      16.42421530       27.29899468        7.46276806
  675      1       1.54740127       12.83435868       10.25083072
  676      1      25.68929017       11.55345662       10.93138999
  677      1       8.21035753        4.84019514        6.99821539
  678      1      20.39823751        4.70885095       17.58591794
  679      1      10.44368296       18.58053705        0.98219707
  680      1       1.90776039       22.74852237       22.07851058
  681      1       3.28633715        2.45444174       19.80866845
  682      1      12.64884116        8.62676340        5.00169550
  683      1      19.92232103        1.95562651       21.60934254
  684      1      15.33834414       23.83003536        3.79080487
  685      1      23.30254857        9.75134726       15.91473853
  686      1       2.30013820        8.83601627        3.18672669
  687      1      22.45778889       10.16932357        2.57511080
  688      1       4.23811611       12.28603165       24.28847678
  689      1      20.74788769       26.25299773       12.36137240
  690      1       5.32773913        8.53218699       18.85862346
  691      1      16.87301068       15.38190090       18.49249544
  692      1      20.97301249       10.23988947        7.21824364
  693      1      15.61600624        5.28641487       26.19844411
  694      1      18.99074307       17.82230080        5.77335245
  695      1       1.86784008       25.50436751       25.70557450
  696      1      21.35919062        6.53225756        2.15314588
  697      1      23.53404748        8.15867561       27.12164762
  698      1      19.03977283        0.67561315        5.15058997
  699      1      20.99457651       11.79354321        3.65549257
  700      1      23.49347622        8.31927198       21.63907562
  701      1      21.16421499       27.56936721        5.20348671
  702      1      25.05769718        8.75457243        8.73855557
  703      1      10.70472597       23.02619911       21.15156292
  704      1      10.53384760        6.84003729       11.97156998
  705      1      23.12492782       21.53463446       14.95918114
  706      1      19.27372164       15.83354604       22.05331482
  707      1       0.23027955        3.12424326        3.57910650
  708      1      10.75700812       26.71035372       21.51997994
  709      1      14.99628340       19.31384801       14.33411126
  710      1      16.40612247       27.57671265       20.59548106
  711      1      23.31119720        4.45806907       25.61530469
  712      1      14.52246069       17.37835176        0.45163693
  713      1       8.68446125        0.53679698       24.15720236
  714      1       5.45950992       17.71421312       14.61025898
  715      1       2.42936585        6.49104243       19.92115627
  716      1      16.29699553       20.09344150        9.79852983
  717      1      10.16036407       18.98948074        6.31933975
  718      1       1.40866065       27.58427833       13.41811805
  719      1      11.32676310       10.68444328       25.45824657
  720      1      25.49415192       19.58630048       15.95948629
  721      1       1.98949888       20.02341032       18.04115274
  722      1      19.15837002        2.60882563        3.80408709
  723      1       3.72480214       10.09312982       27.34945821
  724      1      24.03977600        4.80509721        4.28653283
  725      1      12.28947385       11.81530173       27.39844144
  726      1      10.08222189       13.32989133       20.25440412
  727      1      23.34230121        8.84131109        4.28962158
  728      1      13.72884330        1.93150562        5.92891893
  729      1      23.43634024        7.30124610        7.91902099
  730      1       0.12038375       16.04741323       24.36624745
  731      1      26.72421931        2.70280096        5.62532607
  732      1       0.39794358       21.20693320       25.13353277
  733      1      26.27632333        4.41367887       19.30820097
  734      1       7.22757014       17.92268140       17.86597105
  735      1       1.47755136       11.56610414        6.00563993
  736      1      19.24903258        2.07940422       14.19065489
  737      1       7.68744634        1.77398706       20.44595041
  738      1      20.97321516       14.35299872        6.47435807
  739      1      12.89835148       11.56805693        7.48447697
  740      1      13.76837266       18.67753937        7.79065731
  741      1      23.18683355       14.52495524        2.87577456
  742      1      19.13338099       11.49300831       15.95304574
  743      1       8.23988435       13.57552913       18.81898388
  744      1      22.92839862        6.78407616       25.25056934
  745      1       7.04094328       21.75327863       24.72365574
  746      1       3.37883219       21.36101585       10.63547015
  747      1       0.94015440        0.50036405       23.53060088
  748      1       6.05555750        8.74991664        2.49717393
  749      1       5.71210989       17.31280499       10.82139306
  750      1       9.98410503       26.22708401        6.51625583
  751      1      18.50433284       19.51347906        9.52730658
  752      1       9.22329124        1.73246094        0.07499769
  753      1      22.66278694        2.59491675       15.75619687
  754      1       3.76302807       20.26458908       23.85766669
  755      1      15.75597694        3.36412503        5.40277657
  756      1       7.12112729       18.85267336        4.43048962
  757      1      23.13287879       17.06119788       27.12414434
  758      1       3.82419605       20.26635575       12.71155975
  759      1      25.61294061        9.63931028       26.46570167
  760      1       8.78755661        9.00948394        9.33950788
  761      1       0.15793668       17.97103745       12.25287179
  762      1       3.16445815       17.18545050       13.98434321
  763      1      10.99476657       19.69632962       14.39400403
  764      1       7.41725087        1.67080838        3.63046830
  765      1       2.60432708       15.03645583        1.96341210
  766      1       3.73187516       17.75200313        4.12939476
  767      1      19.12316389       18.65389785       19.57831094
  768      1      14.59761249       18.09530153       25.89476525
  769      1      18.55943483       23.00607858       20.85335770
  770      1      17.12377396       16.50834724        6.51959972
  771      1      20.71171518        8.83203278       18.42750071
  772      1      24.40881052       13.16007497       16.26761886
  773      1       8.67852739       23.34036710       24.25609521
  774      1      14.06002176        1.89800131       18.54685176
  775      1      20.13987022        2.67762310        1.55412222
  776      1      10.46575525        7.25762712        9.65716828
  777      1      20.60485586        5.53269825       21.12894530
  778      1      15.65529463        2.95167501       12.84446538
  779      1      13.28939343       11.85761392       11.15032209
  780      1      19.45934624        9.09143825        8.73848320
  781      1       7.62572332       27.10504161       16.48087607
  782      1       4.79204879        7.70686923        9.99085086
  783      1      24.52808713       26.79095487        2.53749425
  784      1       3.62894377        5.99967806        0.47725464
  785      1       3.69691802        5.12925456       23.00062715
  786      1      13.62375938       23.52015028       17.71236476
  787      1       7.18589898        6.94045566        6.74724582
  788      1       9.79692843       13.72434265        6.32791625
  789      1       4.91110654        1.92456966       23.30354266
  790      1      27.21644157        2.15501951       20.29441183
  791      1      22.09235651       15.39426170       10.05434465
  792      1      21.53180952       13.50247712        8.67272851
  793      1       6.51590695       11.99044189       23.61810308
  794      1      23.96891166       12.20774363        6.04735816
  795      1       6.04043508       26.12793104       19.29900147
  796      1      27.46949405       25.04942284        2.43579788
  797      1      25.02503937       15.17061619       12.29988848
  798      1      25.72327937       13.66509527       21.92931542
  799      1      15.14989306       25.40155813        2.16901182
  800      1       4.52140980       14.25534297        5.43238117
  801      1      10.11797471        6.19473291       23.99214622
  802      1      10.67659295        7.50051285        4.31128941
  803      1      26.45590242        6.50592599       16.41900480
  804      1      20.07107226       20.85658799       23.68356876
  805      1       9.50208389       23.04029101       12.93701474
  806      1      21.08320548       23.59705109        5.93759771
  807      1       1.82311401        9.23753612       26.48005969
  808      1      10.85206058        3.04002434       17.40620122
  809      1      21.08542350        3.65717032       14.30070262
  810      1      21.01409011       20.08770565       26.95904640
  811      1      27.56374869        6.27779309        4.93930008
  812      1       8.51770491       16.99570281       21.52657695
  813      1      15.90580459        5.98326662        8.14458277
  814      1      16.53835850       11.81858728       26.77758063
  815      1       8.33433626       14.67434864       25.27950514
  816      1       7.52194944       24.63550835       22.69206473
  817      1      26.40980598        7.88067588       24.83841747
  818      1      14.54420744       10.94938888        0.04375410
  819      1      11.84222188        3.28050566       11.76211711
  820      1      10.84319892       12.36908342       14.41846446
  821      1       1.64915554       18.20865151       19.55067564
  822      1      13.77493349       21.03375011        7.66852027
  823      1       0.75422465       11.34258309       19.85901907
  824      1       0.76001449        3.63371997        8.99780265
  825      1      10.29781473       14.70212626        0.90867809
  826      1      27.41180039       23.87656661        8.92204375
  827      1       6.17318755        5.20260548       15.88260272
  828      1       0.86125438        0.90484766        2.97011504
  829      1       5.87402827        5.60534965       22.10671406
  830      1       8.80977070        9.68566552       11.70293569
  831      1      26.64569252       10.92107127        3.45206774
  832      1      19.62091258       11.25365707        5.49395986
  833      1       2.20618408        5.41081462        8.50577740
  834      1      15.49616179        0.02346873       15.20812813
  835      1       4.08612649        0.91939851       21.40253862
  836      1      25.87275088       12.27269892        1.69290536
  837      1       8.36091523       24.62662798        5.69649943
  838      1       2.62170828        4.44907536       21.02877847
  839      1       8.03360780       24.67698085       15.98649821
  840      1      22.02243117       26.72048638       19.79669320
  841      1      22.22510128       23.18553879       21.46412359
  842      1      10.30165759       15.32051771       21.62100907
  843      1       5.22667240       18.79388638        0.42000258
  844      1      12.26847341       10.12046598       20.44442325
  845      1      24.96758347       15.67724769       26.60489034
  846      1      13.29511808       24.79274831       24.97573882
  847      1       2.24660901        0.53559639       11.20647122
  848      1      24.32810990       15.52224268       22.73548054
  849      1       5.92367346       23.26746684       12.82302531
  850      1      19.16759647        7.97398150       12.46741220
  851      1      17.51141706       21.44918393        1.81933672
  852      1      15.68851276        2.41730396       15.15864439
  853      1      16.71891056       10.67877967       24.63446399
  854      1      15.33045486       13.21110298        5.57206183
  855      1      11.70799843        2.23401816       19.48855355
  856      1      11.42578497       22.49229607       17.32986458
  857      1       1.91393836        8.47691430       14.14147346
  858      1      23.20010442        0.77592844       22.86632406
  859      1       6.86404716       21.08140815       15.42704644
  860      1       9.02221113        4.33565305        4.94463463
  861      1      10.44801536       24.30427923       16.02256768
  862      1       3.33656350        5.25103469        6.33610330
  863      1      14.26822454        1.48107944       23.22387803
  864      1      20.21058991       10.23471458       20.28117938
  865      1      18.53592633       12.41236486       13.77657119
  866      1      27.25759169       26.37157973       17.90466788
  867      1       6.79760703        8.18635286        0.31245807
  868      1      11.05358870        5.27089915        4.46060195
  869      1      22.74697826        0.29045098       27.22570959
  870      1      23.40564319       16.96359707       17.37669202
  871      1      20.97938985        4.69309340        0.59761489
  872      1       5.24266087        8.62103287       12.08583114
  873      1      25.01750846       10.06647071       21.29464837
  874      1      13.87475422       16.36418021       16.62358582
  875      1       3.41886288       17.02435150       10.19822954
  876      1       4.39258194       15.23135405       16.74127626
  877      1      21.85541937       13.81894327        0.99804876
  878      1       3.04317804        0.89061988       14.83403921
  879      1       3.13018111        6.60547735        2.79054403
  880      1      26.14379340       27.65111301        9.26812790
  881      1       6.78409052       11.28789372       15.96233652
  882      1      15.10667150       18.43830899        4.22322482
  883      1      22.95880020        9.28455700       18.17172194
  884      1      13.79962494        5.83183843        1.92717499
  885      1       5.26060950       26.32334945       10.81239702
  886      1       2.73118966        7.05497820       24.06882273
  887      1       0.40128598       27.65393338        7.87899230
  888      1       1.97395048       24.54897070        9.15092753
  889      1      18.82063276       17.24099084        9.79294368
  890      1      22.46590368       16.70822549        3.05718340
  891      1       1.51366861       15.52061181       26.28202160
  892      1      12.25638774       16.57303686       21.03265959
  893      1      13.65017218       21.90947308       11.77973777
  894      1      25.89056717       25.74889892        0.61353172
  895      1      12.18445438       27.18327161       27.43705673
  896      1       2.84914181       13.81515738        8.65103989
  897      1      19.54240719       26.06000262       14.54322012
  898      1       2.95775262        8.85695625        9.04293193
  899      1      22.82303467        4.40761378       21.45194813
  900      1      25.25512242       26.61219376       13.32526751
  901      1      17.52347756        7.21397355       22.92374854
  902      1      20.81115474       23.91447218       11.80897104
  903      1      17.14293636       25.91211856       14.41192027
  904      1      26.68071332        5.99363993        0.91718046
  905      1      17.74715976       14.38314703       14.77564817
  906      1      14.25048906        8.75232081       27.00606265
  907      1      17.12608343       26.89075123       18.34634371
  908      1      23.93299221       27.60544443       20.79587179
  909      1       0.62484127        2.81528544       16.75069876
  910      1      11.21426005       26.16481883       17.20423785
  911      1       9.60224941       26.09134010        2.10652616
  912      1      26.77227931        7.83631076       10.14375132
  913      1       6.02516634        2.50333394       10.89928240
  914      1      20.40867411        7.81269335       14.65457119
  915      1      22.07706132       26.45383961       23.58343762
  916      1       6.74967307       11.33115540        5.37074530
  917      1      24.57881836       22.19319673        3.36358456
  918      1      22.20921977       20.21501768        1.32521885
  919      1      26.52158907       10.09090984       17.37292054
  920      1       5.38196349        7.34602302       15.47553770
  921      1      11.30285829       12.06293859       23.52915276
  922      1       8.92376009       20.94689491       13.98452512
  923      1      13.56112060        5.19554157       22.58346146
  924      1      17.52209020        8.50499732       24.93489943
  925      1      17.29431816       24.52048210        5.17202726
  926      1      26.11958811       15.00381871        8.67196697
  927      1       5.74310260       18.83031560       12.58327673
  928      1      11.63720612        0.38631723       14.02634167
  929      1      16.48059941       12.03261327        9.05628515
  930      1      13.65768749        1.26305030       26.74913278
  931      1      17.61220297       19.20240727       17.76274236
  932      1      19.66594059        1.15592878        9.30331558
  933      1       3.51702651       13.07085889       17.26778762
  934      1      20.02995201        4.41359697        5.02285280
  935      1       2.26008694       26.91660652        9.09512239
  936      1      20.96996432       15.74176011       20.14628219
  937      1      15.44699149        7.31752980        3.05198330
  938      1      14.90566387       10.59909147        2.31764225
  939      1      22.41242540       11.95729633       12.96645882
  940      1      14.68730573       11.81436491       14.40806882
  941      1       8.14512518       22.20500496        5.58352103
  942      1      15.70887142       17.17126144       15.15306443
  943      1       5.71251248       21.98468824        5.76755693
  944      1      12.61657801        7.71277588       19.93176803
  945      1      12.24053093        2.14627659        2.34334169
  946      1      26.11488200        4.26233209        9.44398993
  947      1      15.45416118        0.51408710       25.33583927
  948      1      12.50177343        8.32234891        9.12694764
  949      1      15.44130288       22.25640459       18.81537710
  950      1      21.38812126        3.22337157       24.95875227
  951      1      25.25541161       20.73349841        8.54452879
  952      1      10.38216304       21.68490274        9.23185849
  953      1       8.69497281        9.41279068       21.78349932
  954      1      18.03071332        7.49651501        7.44892486
  955      1       9.99037406        2.82723246       10.17993163
  956      1      23.68749717        8.02729918       12.76104858
  957      1      21.04116655       15.19316249       25.18836117
  958      1      13.46832518       21.68800462       27.07221941
  959      1      13.61279765       24.46324416        8.57644303
  960      1      15.17635259       15.97008653        9.73619464
  961      1       9.64948741       13.40756284        9.92652938
  962      1      21.04808624       17.13647878        8.94354920
  963      1      26.95122701        2.40388867       12.21984620
  964      1       6.09681890       27.13152002        6.80633515
  965      1       8.62833928       14.70259963       11.72516358
  966      1       8.01162554       20.83840695       26.62405118
  967      1       7.38561285        8.88945651       15.39840293
  968      1      18.36426418       11.28119812        0.74382621
  969      1       4.52971609        7.46088936       20.74961805
  970      1      11.74380186       13.15068084       18.53122784
  971      1      26.29477235       21.22960524       19.48078692
  972      1       0.34036559        8.06961926        6.47110551
  973      1      18.32453579       11.67610705       23.10788884
  974      1       4.61312446       22.93892866       17.66719058
  975      1      11.23072572       10.02416317       14.64845238
  976      1      25.09687674        1.49691628       24.06603115
  977      1      19.76186923       22.41654395       13.41209821
  978      1      25.91813706       12.30716971       14.72942966
  979      1      17.18460862       27.27654607       11.16036593
  980      1       0.93196510        0.68507077        0.59039126
  981      1      14.15064155       11.55470734       20.72189492
  982      1      23.23967680       25.91471626        7.71070583
  983      1      15.16809205        3.43313844       22.25228004
  984      1      24.22491561       13.48842640       25.83693410
  985      1      12.80761487       17.34141477       18.69718268
  986      1      25.83067139        4.85522391        5.75245605
  987      1      14.89371689        5.76242982       17.34637674
  988      1      11.55884721       19.82753293        4.62728484
  989      1       3.55255273        3.27104891        2.88934493
  990      1       8.60681948       17.32345646        5.53759826
  991      1      25.79806041       13.60525995        6.52296543
  992      1       3.91213090       23.64741977       23.19225910
  993      1      17.58696764       16.95192011       16.77370494
  994      1      13.30281897       25.52359588        6.25788004
  995      1      22.36239357       13.34417601        4.75643143
  996      1      24.50189469       18.55606088       13.87660001
  997      1      19.22332984       25.24676063       20.87849839
  998      1      12.33622921        5.50311009       12.38033550
  999      1      14.31982292        2.17362890        1.08168704
 1000      1      18.07103083        9.66182469        4.69168365
