run_id:  1019
total_energy:   -3029.5184525187547
  1000 atoms
  1 atom types
  0.0   27.664  xlo xhi
  0.0   27.664  ylo yhi
  0.0   27.664  zlo zhi

 Atoms

    0      1       0.01936470       18.73628969        6.76886410
    1      1      14.70799391       18.60325837       19.59976319
    2      1      19.85437353       15.23182083       15.87433487
    3      1      17.39912202        8.35135435       17.16715005
    4      1      12.87793536       12.80990481       13.34446216
    5      1       8.82225560       16.66822776        0.72789402
    6      1      13.87489123       23.99274306       26.97834873
    7      1      24.73378570       22.87237709       12.51405800
    8      1       0.64565899       26.00707216        6.12352179
    9      1      26.75684679       27.54292747       27.08401714
   10      1      26.25929654       24.03663205       26.52494253
   11      1      24.73168735       12.81846017       12.65229476
   12      1      12.02412701       16.22991694       11.53373285
   13      1       8.77331023        2.83024042       23.38914939
   14      1      22.31070487       12.21653928       22.83641919
   15      1      16.04143702       21.60722812        8.01261887
   16      1      22.72553968       17.42534679        5.21719110
   17      1       5.63976371        9.40016386       26.31201071
   18      1      25.00908107       10.29258577        5.07961880
   19      1       8.63522504       12.94986725        1.26049494
   20      1      25.63976255       18.09079403        1.77854974
   21      1       2.98568610       23.66401669        7.20107414
   22      1       4.98563432        2.29116439       17.96472249
   23      1      10.40574725       14.38028572       23.84797759
   24      1       0.40300394       14.89021070       19.06568332
   25      1      27.42729766        9.47338604       21.19827194
   26      1      12.90037084       18.22064535        3.59150873
   27      1      22.34300670       19.09912492        9.29189201
   28      1      17.72243934        3.24864122       15.57683805
   29      1      27.29212128       22.36721758        5.60624793
   30      1       4.81040106       21.73021151       14.27852060
   31      1      16.69957340       18.84136197       22.84097371
   32      1      16.94666821        2.94492770        3.36379849
   33      1       9.79952692       16.62898204       12.27690939
   34      1       8.21632808        6.04897040       12.54593973
   35      1      15.72124884       27.20410485        3.60224271
   36      1      10.62960435        6.58300582       20.11634026
   37      1       7.06826488       26.92250755       23.01973421
   38      1      21.88790471        2.74848028       18.08508132
   39      1      10.72876937        0.54869686        1.29612269
   40      1      10.81306405        7.16302844       27.65982515
   41      1      10.75584404       25.38640052        8.55656664
   42      1       4.53756122        0.47049941       11.38581052
   43      1       8.93026962       18.79310024       23.14928537
   44      1       1.36442366       13.16832728       26.41999422
   45      1      23.73456188       10.99428502       19.49757127
   46      1      14.36257861        7.65854021       14.48960829
   47      1       6.62117562        5.00292909       25.70494120
   48      1      14.99018186       20.38727135       25.90659040
   49      1       9.77132526        4.83229139        8.97702895
   50      1       1.39935910       18.51382312        1.06809901
   51      1       7.37554533        2.41379040        1.29451992
   52      1      24.52383992       19.93381657       22.68718045
   53      1       0.16621381       21.44702817       13.44255043
   54      1       6.92006974       21.88358591       11.13123576
   55      1       4.66503140       24.45978999       19.59572509
   56      1       1.88682797       18.82387154        3.35164706
   57      1       5.74872753       11.75827312        9.30265282
   58      1      27.18294099       11.73070494        7.36284824
   59      1      23.34896856        4.42070306        0.21376482
   60      1       2.40730453        3.00951779       15.23645340
   61      1      18.79801992        0.73319150       23.31302989
   62      1       8.11445352       11.70890040        9.29366126
   63      1       5.42488961       27.54644341       17.39127116
   64      1      20.46992374       21.77870621       21.56048415
   65      1       7.08166942        5.13654614        3.62071210
   66      1      15.99166243       13.21577870       15.97457947
   67      1      24.45222499        7.22407464       23.55305671
   68      1       0.19999655       12.28742087       24.61290539
   69      1       7.16320710        2.97303724       18.43822265
   70      1      10.41881813       17.34872615       14.60360167
   71      1      13.74400371        9.70823439       17.37193664
   72      1      13.29074830       21.11655423        1.54031203
   73      1      24.87611963        3.51709374       14.76265204
   74      1      26.35916282        1.82185448       15.77129404
   75      1       2.67650924       10.66883592       10.63468393
   76      1       2.56753763       23.51633052       11.19166101
   77      1       7.74848967       19.93125667       12.18935497
   78      1       3.86972169       16.85133925        7.81103862
   79      1      23.71942746       26.57663136       16.60366453
   80      1       6.99491329        7.51658241        9.04852101
   81      1      18.81808964        4.00851957       21.37280166
   82      1      11.04224520       18.98492994       26.23604463
   83      1      14.72228899       27.41089433        5.82393283
   84      1       0.73725706       21.96240013       18.58323957
   85      1       5.68596023       18.04856354        2.80392957
   86      1      26.85136316       25.13885774       19.92490882
   87      1       9.58441626       15.00935288        8.02154162
   88      1      25.29302020        3.79233786       24.48235374
   89      1      24.22183111        5.79321011       15.85468817
   90      1      11.77397571        4.52976405        2.42744290
   91      1       0.56353553       12.55494600       15.63269370
   92      1      20.00895580        0.46488187       15.61785782
   93      1      16.11297723       10.25407414       20.35804415
   94      1      22.83408091       14.21284900       24.06224912
   95      1      17.75283432       20.82796938       23.70835148
   96      1      10.14116259       19.78226177       19.79223064
   97      1      12.97157522        9.46655932       11.26114979
   98      1      25.52366157       10.06236698       15.26919819
   99      1      27.53889872        6.23213513       26.30354387
  100      1      22.76106648       11.60542163        8.02914547
  101      1      15.04178611       26.04740479       23.98753642
  102      1       8.99955544       14.68593419       16.85725268
  103      1      18.92411657       22.90841528        5.01438251
  104      1      17.88003327       26.51824149        4.09855862
  105      1       2.91312802       25.47378449        5.78761861
  106      1       9.69320678       10.00572312       18.14686147
  107      1      11.20365904        5.35194812       22.12867191
  108      1      23.77916825        1.43632102        2.60691969
  109      1      16.05217079       24.53001163       27.65726725
  110      1      13.87495884       13.62952994       19.49865752
  111      1       1.80024010       15.70494752        7.49265286
  112      1      11.09917147        6.91176125       16.52511298
  113      1      12.86621944        7.77226073        0.98809942
  114      1      23.72050416       24.40046600        9.51393597
  115      1      17.10080681       14.59263459        5.23129526
  116      1      19.85434309        4.88237980       25.94238910
  117      1       8.65019000        2.34517120       14.70700701
  118      1      18.94796740       19.03477514       12.97519177
  119      1       8.88636838        2.10557138       17.04920284
  120      1      12.54974137        5.87904996       14.81842853
  121      1      18.13779297       15.15943337       27.07851097
  122      1      26.95443067       14.25435910        4.60125825
  123      1       5.83808686       19.22224384       16.49230960
  124      1      14.47515267        6.79764507       21.05098472
  125      1       2.64040702       12.33750687       20.88515881
  126      1      19.64037706        6.30804814        3.74355689
  127      1      11.13081225       13.92436755       16.31433616
  128      1      20.91175842       16.66914645        6.55316128
  129      1      14.97324820       22.22541677       20.94469653
  130      1       5.05278140       11.00906243        7.09145153
  131      1      14.89569571       17.26294907        6.20517130
  132      1      25.04415705       25.13434358       15.29034438
  133      1      16.88744479       22.75375866       22.47311782
  134      1       5.15996108       23.71259635        8.37009638
  135      1       6.08963450       21.03345603        0.39933164
  136      1       9.51455140        2.04523010        4.95580638
  137      1       3.03536801       19.47591059       27.33992501
  138      1       6.30109343       15.04082752       11.19679282
  139      1      12.92966059       15.88071773        3.72975869
  140      1       9.61311795       24.49242747       26.11233613
  141      1      26.83860736        0.61423998       13.77497192
  142      1       9.16103881        9.69954058       25.60614012
  143      1       3.88656672        9.00963284        6.88012996
  144      1      16.97557460       23.49632783       11.05236536
  145      1      21.61761237        8.60312698        1.02662652
  146      1       1.82242240       21.84378925        5.97065851
  147      1      11.46715797       26.91804553       10.25482924
  148      1      13.74644188        1.83814666       11.99632295
  149      1       7.38156725        1.19071195        7.89639745
  150      1       0.40151028       12.15402764        0.60953349
  151      1       0.09739587        9.14829693        2.40561600
  152      1      15.44257595       20.64450116        4.74337910
  153      1       7.81628233       25.62895264        3.66211169
  154      1      14.08860656       14.38990275       23.39424374
  155      1      24.78499885       17.62781337       19.27407531
  156      1       2.06649683       24.90872405        1.70679395
  157      1       8.72678505        8.30898668        5.45739195
  158      1       1.28574537       14.16320337       12.24284703
  159      1       2.12419522        6.90445188       26.38087293
  160      1       4.27687053       20.58156094       17.92775648
  161      1       5.53047986       16.35227747       18.47340707
  162      1       5.06575614        1.00470525       13.70092335
  163      1      27.45774540        7.06027308       14.32865066
  164      1      12.84158903       15.10287687        9.58141065
  165      1      19.43190958       23.58775274       26.70783051
  166      1       5.85383397       15.25156852       14.89259880
  167      1      11.06175269       18.62383996       17.93220426
  168      1      14.69874178       18.29935835        9.86126460
  169      1      26.60963324        7.24213251        3.02256920
  170      1      11.51030920       24.50159585        2.74560674
  171      1      20.63651762       15.33808941       12.06166633
  172      1       7.35385307       18.03331387        9.23103544
  173      1       1.75215540       14.47160115       21.29129577
  174      1      16.30853059        9.24246731        6.32751366
  175      1       2.18686136       21.11630752        3.68118861
  176      1      18.09026445       13.56416780        8.55705962
  177      1      25.74253713       23.31866342       22.59823936
  178      1      11.56525409       18.19675240        7.94248202
  179      1      25.55670274       18.06231069        4.05981409
  180      1       8.27825748       25.22192202       19.00163253
  181      1      22.65216771       21.00718817       18.74690910
  182      1      15.38216231       21.77633498        2.74848139
  183      1      21.12623737       26.88005425        2.93709148
  184      1      24.98124701        1.47269176       19.38384029
  185      1      21.91258477        8.33208501        6.16246726
  186      1       0.84420924       23.35472537       26.25102331
  187      1      12.59021685       18.44385031       22.55700683
  188      1      17.45207309       22.59873931       27.39956820
  189      1      14.91279248        5.57072963        6.08325965
  190      1      14.21725437       25.59261630       12.40872132
  191      1      10.81077430        3.08954770       22.00316411
  192      1      25.75376846       25.26652919       24.07512461
  193      1      21.80402102        0.98841624        1.61550631
  194      1      10.26708319        3.55816078       26.73109692
  195      1      18.07005356       24.74740245       17.51400771
  196      1      21.34496334       20.63529929       16.93138357
  197      1      16.47906393       25.42514332       12.34995286
  198      1       3.40165884       26.86472811       16.42879396
  199      1       1.21329235       18.06806966       10.21635636
  200      1       3.99251599       15.95695256       26.20943247
  201      1      16.02438140        5.79906667       19.41030552
  202      1      21.97139661       20.53530254       11.21826960
  203      1       3.73418401       24.87246308        3.47009891
  204      1      18.28935571        5.70276848       12.34256434
  205      1       9.14215947       10.60027729        1.86798955
  206      1      26.80999787        5.50710465       21.29911100
  207      1      26.27870104        7.90979090       18.31208929
  208      1      26.88840922        4.85413914       13.19824788
  209      1      12.94042564        8.99896924       25.11415565
  210      1       4.70202559        9.28415860       22.35529444
  211      1      24.80071171       22.20167747       26.75219457
  212      1       0.17660873       17.85301902        4.69222500
  213      1      23.20222117       16.68900818       20.95773593
  214      1      13.19690497       25.92491335       18.13083321
  215      1      14.16469709       15.29170648       21.18345658
  216      1      26.26594125       15.96404242        0.99002922
  217      1       4.87558227        3.19206202       26.41584411
  218      1       3.81927546       18.64896658        6.37838590
  219      1      20.48924446       10.71656785       23.79354839
  220      1       9.91477599       22.36667973       27.23477475
  221      1      11.38804982       26.01969218       25.47200868
  222      1       1.74781618       12.28996899       13.60081929
  223      1       9.79135091        8.85989713       16.11738051
  224      1      17.30239359        3.80619023       19.58381589
  225      1      16.56462481       11.39554146       12.93713983
  226      1      25.54309661       14.39327348        2.60761164
  227      1       6.15042914        5.98123956        0.12358206
  228      1      13.65701200       12.07675621       22.99576773
  229      1      26.73933974       20.20495283       21.62475835
  230      1       7.62311650        5.58807220       10.26520878
  231      1      22.43210107       19.83535048       13.50530959
  232      1       4.39059679       12.17358197        2.33948646
  233      1       1.14713520       19.03271118       21.64396359
  234      1      21.37441268       16.10717172       14.10444828
  235      1       1.79671087       27.03727497       18.21901890
  236      1      17.06524209       24.93520212       23.60640479
  237      1      20.06095999       24.02317918        1.28798549
  238      1      14.20653494        6.09978958       11.44256165
  239      1      22.25991355       25.20904190       17.92676669
  240      1      14.67332005        9.97501867       23.68616245
  241      1      19.52694976        7.84741014        5.41332623
  242      1       5.42316876       18.69827543       23.74087551
  243      1      24.85362363        2.74745123        0.90320473
  244      1      12.06035714       12.85349510        9.59612951
  245      1       6.99466888       25.02252759        7.56997137
  246      1      19.00339710        5.07521281        7.13997807
  247      1      12.16058631        3.65043079       15.82977566
  248      1      22.53753683        9.81394438       11.62497988
  249      1       1.40995181       18.82816602       16.11640759
  250      1      16.08048877       14.16883299       26.59581766
  251      1       3.00852071        1.15533178        3.76631054
  252      1       5.17324022       13.12459691        0.26963200
  253      1       5.74734644       23.46679895       21.52541528
  254      1      11.83879623        6.85704861       25.47820622
  255      1       0.99904000       15.75236124        5.23317237
  256      1      24.26855907        0.28388310        7.88208365
  257      1      24.64914800        5.16937808        7.77612152
  258      1      15.48323712       27.57541208        9.59016836
  259      1      23.38324574       18.14927805        1.43213852
  260      1      21.18913928       19.96748188       20.31246812
  261      1      25.54823650       16.70306914       24.54840773
  262      1      24.90890501        1.26823387       26.64381009
  263      1      19.95868555       16.88813944       24.08549826
  264      1      12.80909368       18.75704839        1.41193090
  265      1      17.49172995       21.21498678        6.11052667
  266      1       7.55222553       26.58014283       10.69675556
  267      1       9.36563091       24.98277709       21.05134686
  268      1       6.94470854       20.09624936        8.17868972
  269      1       5.45921791       21.60329844        9.42208400
  270      1      16.37004236        3.66491135        9.44583947
  271      1       4.91623629       10.91565282       11.64949587
  272      1      21.80053416       12.00071972       20.42338237
  273      1      16.00839012       21.48444203       11.69527231
  274      1       0.02278917        9.83731349        0.13102574
  275      1      22.25927893        3.79412766        5.49134659
  276      1      17.81364384        7.26714122       19.17425546
  277      1       4.88552735       17.15551815       21.97910819
  278      1       8.97484273       22.89348258       10.58416954
  279      1      20.26569210       24.80021564       16.37764069
  280      1       9.61442370        9.66219849        7.14945388
  281      1      26.77482298        0.83961900       22.32193343
  282      1       2.00661802        4.97864092        4.26641160
  283      1      20.91690643        1.14402560       26.03232880
  284      1       2.61449607        5.82610400       17.64173104
  285      1      22.80089596        7.68907280       14.83269702
  286      1      15.50862171       12.60507992       11.20348136
  287      1       4.38818920       14.70022654       24.26797681
  288      1       1.45286505       10.30082832       24.31637488
  289      1      21.44284460       25.38321930       21.61172198
  290      1      10.39051037       11.23572676       21.56487856
  291      1       4.09175225        4.06916833       16.60322481
  292      1       2.89037629       20.63586603       21.73787527
  293      1      23.45158707       25.71505649       27.19412132
  294      1      20.69938031        1.02768834       19.44490071
  295      1       0.11560862       14.08174240       23.02104971
  296      1      17.88643012       17.57212959       21.25442167
  297      1      14.28033777       15.04430676        0.24121769
  298      1       0.55850183        8.44409943       23.32819248
  299      1       4.78780071       27.08509079        0.58386761
  300      1      19.39559629       25.40098523        8.36240252
  301      1      14.63396705       14.68685192        2.49433412
  302      1       7.23993080       11.06002168       25.64381988
  303      1      17.24403584        4.38131846        1.58026169
  304      1      19.96864746        7.16680342       22.63190512
  305      1      16.82738325       23.89920345       15.60441864
  306      1       4.08711022        9.92492538        2.03968201
  307      1       1.54121270       20.29495521        9.49241388
  308      1       9.49527462        0.86379795        7.04094839
  309      1      24.91852504        1.08415932        5.81247700
  310      1      20.17395354       16.96864388       18.22298503
  311      1       0.96335408        3.00080000       27.62294641
  312      1       3.11710047       10.98520529       22.78876473
  313      1      23.79745139       22.18371341       23.00254302
  314      1       1.38345618        1.64050929       18.74948075
  315      1      14.89057064       27.49494381       17.57442564
  316      1      13.22687706       21.45787158        5.43282138
  317      1      25.63052095       18.96043543       11.96275058
  318      1      24.62487211       18.44492597        9.80001909
  319      1       4.26700872       24.71265890       12.29951712
  320      1       7.77981456       24.30463463       13.63878437
  321      1      12.53614974       17.65237218       24.84877843
  322      1       2.04078536        9.34556862        5.53260646
  323      1      20.30659842       13.00337654       12.27359966
  324      1       9.91273534        0.72284204       19.93633193
  325      1      23.93857378       22.63589289        8.01552997
  326      1       8.33176602       26.41824368       12.81660013
  327      1      23.45401903        5.98691863       11.51895469
  328      1      14.80743756        7.75279608        5.25165878
  329      1      21.66032614       22.35342560        7.59592860
  330      1      23.75546041       16.27904173       13.94510283
  331      1       3.79950126        5.14012951       12.53834371
  332      1      22.58928236       18.77962599       21.82554475
  333      1       0.68335099        3.78191819       21.89846616
  334      1      10.99284693        2.22795697       14.25761439
  335      1      26.21823540       21.18249011       11.82626036
  336      1      19.64277636       20.47219970       11.18952747
  337      1      24.85650504        5.18155568       22.61185027
  338      1      19.88868214        4.36211664       11.02025808
  339      1      19.06644770       19.70597587        7.09996248
  340      1       8.78750907       13.05380825       13.39115920
  341      1      11.43462218       11.06962668        1.93213391
  342      1      18.72648373       19.17806579       27.05643749
  343      1      26.90620835       15.84437840       15.42231405
  344      1       3.54365934       25.85987054       23.96855323
  345      1      10.11222042       21.99059216       19.15307721
  346      1      24.09161724       10.92389684        0.86389257
  347      1      13.47857457        5.13849573       25.08353397
  348      1      25.89093884        8.61025010       13.47528290
  349      1      26.24480605        9.58037282        6.93105089
  350      1      18.21361564        1.12815737        7.27198213
  351      1      26.82437850       22.92177826        3.32689250
  352      1       8.10601330        0.30012688       26.39610957
  353      1      12.94876731        2.32799991        8.25299825
  354      1      19.75333743        8.98443889       25.47734483
  355      1      16.11317953       14.91012952       24.34590039
  356      1      19.73941422       12.44947593       10.02174473
  357      1      18.21192045       13.26992516       19.19649816
  358      1      22.63502341       18.80700899       25.63772825
  359      1      25.83741827       25.28013936        9.97624356
  360      1      15.12135032        4.40766462        0.67154303
  361      1      12.37343152        3.04870130       25.69263287
  362      1      10.11467567       20.41197172        2.71904290
  363      1      26.12846363       24.72942372       12.12994364
  364      1      16.17264567        1.16356989        2.09483509
  365      1      19.00343025        0.78662517       17.81317468
  366      1       6.61881052        6.75086647       24.01927292
  367      1       6.65510823       15.70779708       21.70178372
  368      1       8.39101873       25.88700003       27.55855520
  369      1      15.57666116       20.09110008       18.03046927
  370      1      10.85230543       27.49988921       23.68617166
  371      1      26.94952410        3.73858488        1.47112954
  372      1      23.17446807        5.73865113       17.99151841
  373      1      14.32460038       12.65242114        3.51301143
  374      1      16.80365246       15.47327120        2.99484190
  375      1       6.22382782       14.49280782       19.72600175
  376      1      26.12041311       20.47750934        6.44058088
  377      1       9.04016783        8.35133425       19.78487933
  378      1       3.95556128        7.30707331       13.57008594
  379      1      27.05219175       12.79673816        9.50494024
  380      1      24.74185758       19.94447660       18.42780376
  381      1      12.76714697       22.28012631        9.49017734
  382      1      13.04509902       23.69620610       21.27544511
  383      1      23.92711017       10.48983793        9.80079629
  384      1      18.12467591       11.36858508       20.78815617
  385      1      14.31729401       20.60902456       16.09503411
  386      1       5.75473438       19.88990765        6.22861211
  387      1      27.06304981       19.75927277        0.82478010
  388      1       4.15601618       17.76095284       19.87932449
  389      1       1.06998038       10.91488977       17.33657605
  390      1      11.10210752       22.28573185        1.71940302
  391      1       1.60556679       17.63225375       23.51867123
  392      1       3.77811264       27.25497377        7.13740632
  393      1      26.44384673       21.52144482       15.37237394
  394      1       7.37431729        0.38627773       14.23354231
  395      1       4.55272331       27.19456381        3.04008466
  396      1       5.48643421        3.40037640       13.03540816
  397      1       5.63269211       15.34795698        7.31579236
  398      1       6.31429888        0.04247011       20.89881922
  399      1      27.07801321       17.85004530       16.58743140
  400      1       9.01198391       18.40252344       10.89572048
  401      1       7.89585979        1.24571359       10.19696104
  402      1       1.80881907        4.13187102       13.18360471
  403      1       5.68427878        3.32360973        4.05921095
  404      1       7.41232800        8.22904208       13.02415526
  405      1       1.05580205        7.45778452        8.67548375
  406      1       2.72288716        9.65267233       16.09577668
  407      1      25.28560873        2.21593472       10.44374240
  408      1      19.31604729       26.73157212       10.35957182
  409      1      18.39871761        2.69048077       10.47842310
  410      1       7.56127450        5.36977210       17.86615199
  411      1      18.32920050       17.21160612       25.82343830
  412      1      11.86268468       10.87597069       18.35011634
  413      1       6.16796657       25.19048521        0.23783042
  414      1      14.50980965       21.29405168       23.84253668
  415      1       3.09205595       15.62143201       12.24856141
  416      1      12.20309592       14.24675955       27.11370785
  417      1      21.62819276        1.52183009       10.69127633
  418      1      22.92420411        0.01038051       12.94676113
  419      1      10.68447531       26.41358515       12.65969001
  420      1       6.60225623       10.53208359       21.76387677
  421      1       0.61587679       12.43109779        4.11736707
  422      1       7.73836616        9.77571592        3.80560062
  423      1      19.92039010       23.25051392        8.94922234
  424      1      20.71504395        8.45165021       10.68218271
  425      1      22.40092968       24.13296846        0.98712170
  426      1      17.26045114       20.76058203       26.00612452
  427      1      12.77835133       18.43872326       11.19620228
  428      1       3.39064092       25.03873619       14.74554138
  429      1       5.83448805       12.99569865        4.03418898
  430      1       7.39877916       13.02264270       26.94619846
  431      1      24.49012667       22.81620659       14.83278780
  432      1      22.71898303       22.91786391       11.30331929
  433      1       3.56583323        3.31531141       24.39636209
  434      1       0.62137688       22.79301039       16.42878244
  435      1      21.11256417       25.78528073        6.72615948
  436      1       8.58774843       24.93265914        9.38379251
  437      1      16.01562292       23.78397515        8.82757116
  438      1      12.97386565       25.39038537        1.10397571
  439      1      20.73475438       13.11720618       16.68519040
  440      1       3.83875797        7.90744709       17.13804597
  441      1      17.25456069       25.18321521        7.43023427
  442      1      17.27718786       15.77171213        8.71085734
  443      1      10.10664509        5.09171728        0.84264207
  444      1      15.33021606       14.91465291       11.94800708
  445      1      11.01560344        9.06537443       12.56800294
  446      1       4.27425756       22.32156246        3.74485085
  447      1       4.93687980        7.03519527        6.03030960
  448      1      24.89057602       19.00238035       24.81370405
  449      1       6.47821157       27.36801046        4.38827148
  450      1       9.41003784       27.38356052       17.73356602
  451      1      27.56169412       26.70879989        4.06688048
  452      1      19.61514610        9.32242006        0.07930815
  453      1       1.94385747       22.88682327        0.55627721
  454      1       5.93322680       10.83236171       19.49646836
  455      1       0.54724342       21.63470215        2.00194727
  456      1      17.33079430       11.95572584       17.34987364
  457      1      11.20524319       24.29508766       13.72245926
  458      1       4.63590195       15.25400812        0.70111880
  459      1      22.04175442        3.97949494       12.17774765
  460      1      20.14305073        5.58222483       15.38752703
  461      1      19.79512655       12.87061793        1.86928655
  462      1       4.38629209       11.44542698       15.74843024
  463      1       5.28459670       27.52597353       24.48055605
  464      1      13.22434447       15.09744307       13.16657246
  465      1      23.13562220       22.78222085       25.13550703
  466      1      17.09689996        9.27685205       11.96321917
  467      1      24.60808211       20.19122584        4.67426888
  468      1      21.86158423        2.65349263       22.69190509
  469      1       7.75738992       16.46108585        7.52541841
  470      1       5.34227111        6.86935623        3.71086472
  471      1      25.62969520       11.66921558       25.06451514
  472      1      22.87598077        1.64426481        4.85874674
  473      1      22.50577930       11.98487335       15.41571476
  474      1      27.58163699       21.94007026       22.98834934
  475      1      11.44154439       21.26805173       25.88136368
  476      1      15.72538129        2.27696376       20.25432129
  477      1       7.74143947       11.43069701       18.13821255
  478      1      22.79329184       12.30500460       27.22325222
  479      1      11.84764487        1.33575449        4.50527695
  480      1      12.21169750        4.62163548        8.35533903
  481      1      22.34412129       19.72861405        5.13150428
  482      1      14.57813535       23.01061185       15.51779674
  483      1       6.71800227       14.44035309       23.62571941
  484      1      17.87660059       19.15920788        1.63024561
  485      1      18.68219252       14.96834146        1.72720349
  486      1      24.65523889       24.99807407        6.02736121
  487      1      19.43367214       22.25060968        2.84315162
  488      1      16.12017557        4.83958951       11.65741125
  489      1       9.29710976       17.13701304       16.83209458
  490      1      12.21165966       15.79268061       15.24326830
  491      1      11.94609739       20.33267626       16.45470179
  492      1      27.22502195       15.74203907       13.01293724
  493      1       3.17033578       22.95429982       15.73221602
  494      1      19.09602652       26.12509441        2.11170928
  495      1      17.90147044       22.74743760       18.66012755
  496      1       0.05478262       16.91935633        8.46192746
  497      1      23.49772826       25.12694913       24.94402052
  498      1      20.18096209       27.12681493       24.65231256
  499      1      24.64956370       15.46096853       15.89795297
  500      1      18.82067043       13.34708886        6.30902860
  501      1       6.37122086       22.04227577        2.47947118
  502      1      18.16562871       14.04448163       23.45528211
  503      1       1.60880628       19.39207663       13.65356630
  504      1      22.37803748        0.37536196       15.26518262
  505      1      17.89685884        5.39711827       14.73313220
  506      1      16.04995625       10.05574029       18.00515761
  507      1      22.04995479        6.74413255        9.73746313
  508      1      12.88925740        9.40199115        2.69479568
  509      1      13.79994850       27.58343038       13.57441415
  510      1       3.03762459       15.61105948        4.17770434
  511      1       2.50404435       16.42347250       16.14972053
  512      1       8.66877062        8.09218942       23.82741894
  513      1       7.91496515       16.84881838       26.24415729
  514      1      17.87196056       26.60805158       22.13905741
  515      1      12.70112738        4.78841693        6.08294490
  516      1      13.16139508       23.75137340        4.68280192
  517      1       7.10173637       20.18897994       22.99384123
  518      1       1.37436089       10.16077695       12.53909855
  519      1       9.97926153        5.51468298       18.05739063
  520      1      18.62807842       25.44017266       25.40497635
  521      1      23.19192688        1.98710874        9.05340220
  522      1       3.95650008        5.49363759       10.16928005
  523      1       3.11590939       15.92202049       22.70181833
  524      1       4.11361173       12.22779388       13.52225340
  525      1      16.34452866       17.27777151       24.61182285
  526      1       2.51843442       26.57975536        0.08927477
  527      1      12.88759848       25.99227903       20.58678488
  528      1      20.83971698       18.38014297       14.37599480
  529      1       3.93002104       21.84236609       27.19643433
  530      1       4.65686604        3.31785284        6.17100774
  531      1      14.80697752        8.22944991       12.21478541
  532      1       7.31061920        7.75042008       18.14360709
  533      1       6.49637770        3.33745167        7.56507043
  534      1       4.87765913        8.19143194       24.38711301
  535      1      14.25961396        3.46219218       16.81855347
  536      1       3.24588730        3.69011931        0.50317781
  537      1      23.75042329        6.78017256        3.09037336
  538      1      18.96838597       21.19532575       17.08179047
  539      1      20.48915813       23.08607515       14.60909781
  540      1      23.72317488        3.73619067       19.34749545
  541      1       1.21214513       23.83289678       20.13193653
  542      1      12.91379854       23.01035234       23.58466864
  543      1      13.42003732       23.60534257       13.42681022
  544      1       2.63257210       25.66459785       20.00048807
  545      1       3.03080797        1.57098905        6.12196956
  546      1      24.69406064       11.70483096       22.86159363
  547      1       7.97353904       18.91718638       19.90476491
  548      1      10.92836662       19.25813987        9.95202192
  549      1       4.68524918       22.20129422       24.88526849
  550      1       3.39299728       12.61928914        6.72181787
  551      1      23.86776385        2.38390615       12.65432524
  552      1      17.61261566        6.39067180        2.54950522
  553      1      18.54515814        3.14146578       17.73157430
  554      1      17.56413383        1.83546802       25.19947406
  555      1       6.78076828        3.23299802       22.23543884
  556      1      18.99188196        1.65671661       27.30589141
  557      1      17.76854443        7.96165791        0.82154662
  558      1      23.14845840       23.27096738       19.28240786
  559      1      22.82104965       25.34033391        2.85127718
  560      1       0.12372243        7.40492318       20.12610669
  561      1       7.72573858        4.76335208        1.43519050
  562      1       0.66944774       23.70969471       12.63707802
  563      1      20.26998779       16.70547603        2.12608090
  564      1       7.56811554       11.50492371       12.04364259
  565      1      26.83275531       24.26506122        6.73464951
  566      1      26.71714308       13.07252074       19.75779145
  567      1       0.84946799        2.10976637        7.13355854
  568      1      17.36638902        3.28642103        7.19923000
  569      1      27.31641003       24.95420528       16.03182110
  570      1      20.91088103       22.04135673       25.60925786
  571      1      13.39392779       15.22205304        5.95957382
  572      1      17.09540542       20.48046599       13.59057176
  573      1      25.51907802        0.29051028       17.42452741
  574      1       2.61373015       26.98538077       22.10175959
  575      1       8.90594199       18.81388902       25.51527730
  576      1       6.26666470       24.44031063        2.40649576
  577      1      13.12134300        7.46786405       17.73724631
  578      1      14.60340921       19.64237264       21.85672913
  579      1      15.70891292        8.53348916       21.97737275
  580      1      27.14016484       21.56476390        9.69809214
  581      1      21.25289837       18.75906376       23.74529050
  582      1      23.28375968       23.80375812        4.52923470
  583      1       6.67724974       21.07151230       20.77592706
  584      1      24.43348397       15.94779922       10.11536223
  585      1      20.64516112        6.87488050       24.87540038
  586      1      14.64212270        2.02404895        9.77124768
  587      1      25.87354621        5.78656168       11.16207722
  588      1      13.56202360        9.79360053       15.15107958
  589      1      17.20786232        4.76139207       22.98153420
  590      1      21.40167878       20.14895102        7.25543800
  591      1      18.68901184       16.82788772       12.06870428
  592      1       4.90892460       14.39115164       12.98041943
  593      1      11.01151606       14.77259678        3.07778900
  594      1      20.90302725       20.32166370        3.23697294
  595      1      17.83766436       27.66165072        0.74453010
  596      1      25.37564057       26.82245670        4.65928703
  597      1       0.21251975        4.95038841       17.50410215
  598      1       7.37467877        4.30275643       14.07185369
  599      1       8.90405316        4.43016009       25.07287719
  600      1       7.50620029       14.23075106        3.00082792
  601      1      11.74731967       15.91430692        7.75360139
  602      1      12.04502335        1.88842560       23.65295686
  603      1      17.56616736        4.21988382       25.21838272
  604      1      13.72158063        6.28962789        9.20700866
  605      1       3.56250574       12.23815318       26.51068157
  606      1      17.59491258        1.64830411       12.38942191
  607      1      27.20491977       17.11208981       18.88241781
  608      1      27.63652329       26.67359186       25.06732482
  609      1      16.24620670        6.83258956       15.76965394
  610      1      25.85525184       26.43140260       21.71116309
  611      1       4.49524642       12.71019303       19.41938377
  612      1      19.50203869        9.16634971       16.41764655
  613      1      25.40354499       23.30453323       20.13420869
  614      1      11.52908616       26.58963858        4.72849915
  615      1      18.00632475       10.44778408        9.97451126
  616      1       2.08108187       19.46230535       25.13080895
  617      1      13.68742061       26.15174371       10.20214655
  618      1       9.11068462       20.86696026        7.40020582
  619      1       1.96534377       19.91402248        7.18600525
  620      1      10.74063003       19.87102802       22.19152434
  621      1       6.89054802       22.81022026       16.95690934
  622      1      11.95645574        9.57694146        7.22294201
  623      1       5.79381459        0.92160427       26.67151298
  624      1      16.86286773       15.92496600       13.35976146
  625      1      15.20631759       11.42030348        7.15864385
  626      1      22.64721537        3.90385199        7.81554474
  627      1       5.83973752        4.22580061        9.59839049
  628      1      15.99241745       16.65965147       20.23365889
  629      1      10.66296925       22.03534283       23.40363825
  630      1      16.14955211       17.69859452        2.22934063
  631      1      20.62280326       13.57479947       19.10454881
  632      1      24.37726285        6.39905401        0.75966269
  633      1       0.90649689       14.65552354       16.68285293
  634      1       1.28234963        2.84384627       24.02666160
  635      1      18.27303476       22.10809785       14.99502262
  636      1      16.91369683       26.46060493       26.66831213
  637      1       5.67524349       17.67562566       26.00257830
  638      1       9.06998422        8.84445491        0.12964223
  639      1      23.60974117       22.09711036        1.16903331
  640      1      27.50557024        3.93211380       25.58392191
  641      1      11.02585179        1.22334735        8.90511320
  642      1       9.12296200       15.15018989        4.45130989
  643      1       4.63097971       20.11245454       20.15166158
  644      1       1.39439365        2.65488746       11.15107621
  645      1      14.50672194       27.12738269       21.88352840
  646      1      19.32211551       13.75426453       25.54684929
  647      1      21.33091956       15.76977647       27.46588187
  648      1      12.32083024       15.23844550       24.86648437
  649      1      21.53804840       18.26303057       16.74953740
  650      1      20.11319162        6.54276668       19.08823857
  651      1      26.91579571        9.65098394       11.70310252
  652      1       5.23855650       14.03008235        9.27571885
  653      1      25.30835628       12.02626447       18.19841109
  654      1       8.08769460       21.00448440        3.73825709
  655      1       2.03023203       12.80303541        2.27593060
  656      1      11.85392917       13.06983283        5.94719161
  657      1       6.64568292       16.09387481        1.83551586
  658      1      26.21263293       20.37259242       26.28768626
  659      1       7.88612076       22.66234561       19.06585941
  660      1      16.25031081        7.57207187       26.69355331
  661      1      19.38828314       18.52796027        3.32234698
  662      1       0.94332207       16.24520710        0.74343041
  663      1       1.17867088       25.33373126       14.20865037
  664      1      17.12224256        9.81547773        2.42953763
  665      1      15.00144593       14.54084021       17.59545157
  666      1      11.97751191       12.65320536        3.59379746
  667      1      13.08133623       19.80996204       13.01084108
  668      1      21.15587829        9.08687690       22.10716955
  669      1      20.73967090        4.97805391        8.85579497
  670      1      24.08331019        7.54604771       19.21073152
  671      1       8.49048553       11.73407036        6.84020524
  672      1       7.56808140       13.61305167       15.28518997
  673      1      16.38743280       27.30867464        7.48207294
  674      1       1.56104613       12.81987324       10.24485330
  675      1      25.69069175       11.54090409       10.92940746
  676      1       8.23303934        4.82243618        7.05661800
  677      1      20.41749908        4.74162764       17.60178123
  678      1      10.41517285       18.61268008        0.94576821
  679      1       1.94930258       22.76735926       22.07864216
  680      1       3.38537016        2.45127380       19.75520572
  681      1      12.63693843        8.68662176        5.06431969
  682      1      19.93630362        1.97207892       21.61873497
  683      1      15.30533925       23.85549294        3.78135656
  684      1      23.30622686        9.73772320       15.91579084
  685      1       2.30403238        8.82957909        3.19682901
  686      1      22.44575950       10.16837094        2.58626516
  687      1       4.23460610       12.31221957       24.29865341
  688      1      20.73449378       26.30341336       12.37259385
  689      1       5.28354955        8.59139429       18.86605531
  690      1      16.92750927       15.39755849       18.52147819
  691      1      20.94956145       10.23924495        7.22562599
  692      1      15.61766825        5.30645707       26.22164249
  693      1      18.96796499       17.79744207        5.72714743
  694      1       1.90086728       25.51555287       25.69203952
  695      1      21.35700900        6.53441802        2.16967920
  696      1      23.53835045        8.16726221       27.13347321
  697      1      19.02365146        0.68569826        5.14682079
  698      1      20.97115963       11.78600517        3.65904021
  699      1      23.50489489        8.31287669       21.64384642
  700      1      21.15810671       27.60520802        5.15210246
  701      1      25.05092566        8.73991357        8.74192304
  702      1      10.73153472       23.10921853       21.05604155
  703      1      10.50920582        6.72782755       12.07893502
  704      1      22.31183677       21.65564330       15.02631104
  705      1      19.28466126       15.84769021       22.05920528
  706      1       0.23465517        3.12150272        3.59026324
  707      1      10.78679463       26.76156429       21.40017296
  708      1      15.13003819       19.34540806       14.34870526
  709      1      16.43191291       27.61479420       20.60663327
  710      1      23.32583962        4.46525693       25.61731472
  711      1      14.50924542       17.41065289        0.42851553
  712      1       8.70737339        0.56238490       24.11943102
  713      1       5.45644514       17.69379159       14.60347691
  714      1       2.44476483        6.48456031       19.91366634
  715      1      16.31517712       20.09314748        9.82439423
  716      1      10.19826335       19.03601723        6.29644833
  717      1       1.35379965       27.50105488       13.39231399
  718      1      11.32447213       10.71442418       25.47098578
  719      1      25.42031505       19.41967306       16.07002331
  720      1       2.00209439       20.00851752       18.04269572
  721      1      19.14282296        2.62233535        3.81127291
  722      1       3.72918426       10.10107029       27.35580717
  723      1      24.03547659        4.81439133        4.30790800
  724      1      12.27825883       11.84311307       27.40999920
  725      1      10.09211570       13.37660701       20.26333018
  726      1      23.32963357        8.84057305        4.30094717
  727      1      13.70863415        1.94651617        5.97239188
  728      1      23.42235070        7.28890715        7.92538617
  729      1       0.13465690       16.05332899       24.37149144
  730      1      26.72630586        2.69205139        5.63900387
  731      1       0.42318936       21.21906024       25.14779141
  732      1      26.30207339        4.40124004       19.30325665
  733      1       7.24757209       17.92617013       17.86214437
  734      1       1.47476447       11.55814599        6.01059217
  735      1      19.22929526        2.14592568       14.21827903
  736      1       7.72304002        1.85140715       20.40167250
  737      1      20.92638414       14.33043652        6.46031243
  738      1      12.81016474       11.68930671        7.58419587
  739      1      13.80785150       18.71987732        7.78845354
  740      1      23.17704718       14.49976406        2.86441634
  741      1      19.15463143       11.48106969       15.97298555
  742      1       8.24454226       13.61172940       18.82658390
  743      1      22.94066236        6.79183085       25.25736953
  744      1       7.06688793       21.81106030       24.68772236
  745      1       3.35398248       21.31183149       10.66608367
  746      1       0.97472217        0.50157145       23.51035092
  747      1       6.05739914        8.74486673        2.51069668
  748      1       5.71583969       17.31656969       10.78273027
  749      1      10.01223752       26.26491752        6.48058300
  750      1      18.48453745       19.41379401        9.39688703
  751      1       9.22343697        1.74426325        0.07004456
  752      1      22.67685703        2.63249710       15.76054180
  753      1       3.78443725       20.29289325       23.86450399
  754      1      15.73498734        3.37826758        5.43821570
  755      1       7.09039663       19.01100746        4.48714151
  756      1      23.13589163       17.05181876       27.11739195
  757      1       3.78994517       20.21640294       12.73591734
  758      1      25.62707774        9.63141981       26.46398468
  759      1       8.79961613        8.93988101        9.40227476
  760      1       0.10232935       17.96895039       12.28054473
  761      1       3.15714936       17.18000696       13.98328366
  762      1      11.05418697       19.65281890       14.39594120
  763      1       7.44052492        1.67740300        3.64658365
  764      1       2.60537504       15.04846240        1.97279069
  765      1       3.74553060       17.77874923        4.15152526
  766      1      19.17348489       18.70790914       19.58750483
  767      1      14.59907274       18.12932658       25.86927935
  768      1      18.61426366       23.03010423       20.87241440
  769      1      17.08021259       16.50811486        6.51514808
  770      1      20.71934110        8.83124323       18.44028716
  771      1      24.41119736       13.14265314       16.26920484
  772      1       8.69874382       23.40056255       24.15930278
  773      1      14.02591168        1.92838695       18.63318234
  774      1      20.13190888        2.69276094        1.55887620
  775      1      10.46206595        7.18948642        9.74734484
  776      1      20.61850053        5.54730582       21.14465621
  777      1      15.60806716        2.88466518       12.90991128
  778      1      13.26898763       11.82085903       11.27001128
  779      1      19.43746805        9.08222899        8.74827082
  780      1       7.41817324       26.90518602       16.23314653
  781      1       4.79767774        7.66280923       10.01850391
  782      1      24.54347790       26.82438003        2.52141477
  783      1       3.63980513        5.99587203        0.48739690
  784      1       3.72617845        5.13455036       22.98690695
  785      1      13.66921160       23.58735332       17.64955178
  786      1       7.19380521        6.91790498        6.79537059
  787      1       9.64986270       13.65294699        6.21917257
  788      1       4.96902172        1.94216920       23.25890597
  789      1      27.26110981        2.14996459       20.27996787
  790      1      22.08364028       15.37506123       10.03227898
  791      1      21.50324641       13.48681267        8.65956353
  792      1       6.50855212       12.01815401       23.63357258
  793      1      23.95695135       12.20204566        6.04838770
  794      1       6.13739611       26.18141390       19.21431828
  795      1      27.46773000       25.05753112        2.43494197
  796      1      25.01825659       15.16579198       12.29163697
  797      1      25.73702246       13.65713397       21.93584353
  798      1      15.13050742       25.42259874        2.14842895
  799      1       4.51924722       14.25707842        5.43479130
  800      1      10.11610171        6.23154805       24.04227601
  801      1      10.68804658        7.52780393        4.37249305
  802      1      26.46617314        6.48593357       16.41329967
  803      1      20.09534392       20.86601626       23.68025266
  804      1       9.52974123       22.92959720       12.93527537
  805      1      21.17221243       23.62247444        5.73145293
  806      1       1.83258281        9.23671430       26.48534001
  807      1      10.74122621        3.39716904       17.69399641
  808      1      21.08837320        3.69568527       14.31432473
  809      1      21.01705445       20.09098920       26.94501510
  810      1      27.56683003        6.26776058        4.95093454
  811      1       8.53304756       17.03616829       21.51762056
  812      1      15.87379636        5.97135763        8.21536003
  813      1      16.52892606       11.83739641       26.79323482
  814      1       8.33712731       14.70489059       25.27847684
  815      1       7.61326978       24.68459925       22.52787859
  816      1      26.42509679        7.87776596       24.84157226
  817      1      14.53211453       10.98206985        0.06883852
  818      1      11.65814572        3.03143482       12.15884076
  819      1      10.86697632       12.37415839       14.46323077
  820      1       1.67284956       18.20865715       19.56896626
  821      1      13.81256883       21.06428372        7.67449196
  822      1       0.76609962       11.32461005       19.85720830
  823      1       0.75495243        3.60071200        9.01095800
  824      1      10.26489711       14.72633330        0.87478784
  825      1      27.32729912       23.85067443        8.95953340
  826      1       6.16037954        5.18329468       15.91644901
  827      1       0.87292488        0.90516941        2.97864461
  828      1       5.90075015        5.63058965       22.08512363
  829      1       8.81984047        9.59558856       11.75667806
  830      1      26.64343412       10.91413256        3.45700241
  831      1      19.59151551       11.24993702        5.49712280
  832      1       2.20669651        5.38014684        8.52258941
  833      1      15.47647055        0.04937495       15.26205983
  834      1       4.14865914        0.92552927       21.36043650
  835      1      25.87130336       12.26375881        1.69625288
  836      1       8.40395105       24.63512910        5.71148118
  837      1       2.66977804        4.43951357       21.00537780
  838      1       8.05368690       24.58511420       15.90744216
  839      1      22.03788233       26.71998332       19.77253795
  840      1      22.26472282       23.20190896       21.46083937
  841      1      10.32539231       15.37351418       21.61377027
  842      1       5.25510144       18.85274989        0.44017413
  843      1      12.28389465       10.18080355       20.47355293
  844      1      24.97276924       15.66809010       26.60698028
  845      1      13.29682753       24.82032075       24.92861006
  846      1       2.23594589        0.45305203       11.19037155
  847      1      24.34215663       15.51087545       22.75079385
  848      1       5.90137419       23.18529146       12.81717862
  849      1      19.14931887        7.94931326       12.47369350
  850      1      17.49112443       21.46406068        1.79590723
  851      1      15.65600334        2.43604311       15.22518718
  852      1      16.72317026       10.69405379       24.65520168
  853      1      15.14758434       13.34436925        5.65346716
  854      1      11.67064958        2.34778561       19.61409191
  855      1      11.47078964       22.56022054       17.29025512
  856      1       1.91572717        8.44949114       14.13016993
  857      1      23.21930932        0.78591623       22.85848244
  858      1       6.88063983       21.03403917       15.43277143
  859      1       9.02732691        4.35339195        4.98215132
  860      1      10.48090742       24.36774290       15.98082598
  861      1       3.34257107        5.23479087        6.35300501
  862      1      14.27279659        1.50546111       23.21507476
  863      1      20.22474008       10.23334144       20.29593591
  864      1      18.55009689       12.37952734       13.78478935
  865      1      27.24146191       26.33545482       17.89482090
  866      1       6.79889257        8.18959207        0.32247490
  867      1      11.05759250        5.29156183        4.49532261
  868      1      22.76026141        0.30905856       27.21809403
  869      1      23.63064149       17.08935659       17.26539018
  870      1      20.98343211        4.70236409        0.60640394
  871      1       5.25259473        8.58288161       12.11032375
  872      1      25.03122543       10.05715279       21.29862919
  873      1      13.94074982       16.40736686       16.68036872
  874      1       3.40463036       17.02618642       10.21513445
  875      1       4.41948079       15.22910064       16.73914279
  876      1      21.84001093       13.80404819        0.99132859
  877      1       2.99272386        0.80844539       14.78598648
  878      1       3.13803324        6.59880336        2.80363662
  879      1      26.10856342       27.61026497        9.30401602
  880      1       6.78639250       11.30162173       15.96967002
  881      1      15.08046709       18.47263342        4.20728646
  882      1      22.96758965        9.27440526       18.17528274
  883      1      13.79411228        5.85162009        1.95313553
  884      1       5.22825712       26.02304584       10.50369036
  885      1       2.74156857        7.05096610       24.07105196
  886      1       0.38118148       27.62048309        7.90715859
  887      1       1.89247995       24.50121442        9.18194131
  888      1      18.81355344       17.17387231        9.75555115
  889      1      22.45254765       16.67887889        3.02366908
  890      1       1.52068985       15.52493417       26.28827151
  891      1      12.29203846       16.62606001       21.01650769
  892      1      13.64837078       21.84414658       11.83607564
  893      1      25.90232003       25.76462476        0.60170601
  894      1      12.17935608       27.20201626       27.40809582
  895      1       2.85783326       13.81819686        8.64955428
  896      1      19.47111756       26.25048073       14.52544722
  897      1       2.97190720        8.82457929        9.05893594
  898      1      22.84299013        4.41631477       21.45409201
  899      1      25.17945995       26.55415228       13.36891681
  900      1      17.53487557        7.23359761       22.94570782
  901      1      19.23934274       22.80894410       11.11181451
  902      1      17.11003210       25.95387400       14.49449208
  903      1      26.68566376        5.99572825        0.92162411
  904      1      17.78430399       14.35645347       14.78848611
  905      1      14.24538946        8.78008156       27.03737077
  906      1      17.13672324       26.92385207       18.36937032
  907      1      23.95269159       27.60524737       20.78910191
  908      1       0.63734425        2.78302769       16.73436072
  909      1      11.31848418       26.48152290       16.64733731
  910      1       9.61879090       26.10231333        2.10007654
  911      1      26.76931482        7.81675122       10.14514764
  912      1       6.00095064        2.40240752       10.88265484
  913      1      20.40589174        7.81841760       14.65646862
  914      1      22.09390861       26.46906026       23.57715749
  915      1       6.71168058       11.30549911        5.37021419
  916      1      24.59780475       22.17826011        3.32967091
  917      1      22.21811865       20.21037186        1.30058778
  918      1      26.52673701       10.07106878       17.37065099
  919      1       5.36645782        7.31910380       15.48136017
  920      1      11.31278153       12.10601856       23.54711071
  921      1       8.95002643       20.85542179       13.99142848
  922      1      13.57228695        5.24164991       22.62286840
  923      1      17.52206767        8.51943546       24.95907367
  924      1      17.27438223       24.52841789        5.15168733
  925      1      26.11938657       14.98764336        8.67182836
  926      1       5.74303322       18.79420828       12.57391317
  927      1      11.65453326       27.63319842       14.47300693
  928      1      16.43974358       12.02703916        9.09247688
  929      1      13.66122698        1.28006935       26.74461968
  930      1      17.76414978       19.28525711       17.69837673
  931      1      19.62711643        1.11057467        9.32298391
  932      1       3.52424257       13.07922469       17.26590864
  933      1      20.01302004        4.41893643        5.04318484
  934      1       2.24902417       26.85576609        9.10042216
  935      1      20.99941478       15.72161107       20.18303237
  936      1      15.43454099        7.30925617        3.10609840
  937      1      14.88215269       10.66359972        2.35238148
  938      1      22.41075809       11.94753322       12.96136454
  939      1      14.73248725       11.76838857       14.47420127
  940      1       8.93396665       22.31689308        5.53755050
  941      1      15.79707710       17.20394563       15.20227174
  942      1       5.14163743       22.13259733        5.91361539
  943      1      12.62959135        7.78481390       19.98198588
  944      1      12.23670891        2.16966802        2.34415368
  945      1      26.10519336        4.23070603        9.45700707
  946      1      15.45420471        0.52893676       25.32335322
  947      1      12.48684599        8.30448633        9.19697039
  948      1      15.56357439       22.31043994       18.75920451
  949      1      21.39932346        3.23584508       24.96013941
  950      1      25.26990957       20.70344935        8.55969396
  951      1      10.46251953       21.53304567        9.32373761
  952      1       8.68966391        9.48883615       21.82393638
  953      1      18.00444723        7.48712926        7.46785795
  954      1       9.96299790        2.73268471       10.34070774
  955      1      23.68568008        8.01917722       12.75892403
  956      1      21.04097151       15.19144551       25.18910392
  957      1      13.46733424       21.71995862       27.02192996
  958      1      13.65429515       24.42367051        8.63845242
  959      1      15.18170981       15.97773510        9.85046814
  960      1       9.62387504       13.50968178        9.83057733
  961      1      21.04734451       17.11207071        8.90548456
  962      1      26.94802955        2.35026229       12.21625545
  963      1       6.13813604       27.13716817        6.82947004
  964      1       8.65140721       14.67150888       11.68764253
  965      1       8.01707552       20.89724304       26.60568480
  966      1       7.38860727        8.89201714       15.46132685
  967      1      18.34371409       11.28722346        0.76452834
  968      1       4.52956314        7.48518382       20.75056944
  969      1      11.76687145       13.19250487       18.56084017
  970      1      26.36169665       21.25292022       19.55283006
  971      1       0.34237955        8.05699360        6.48323009
  972      1      18.33450927       11.68325921       23.12549088
  973      1       4.62125205       22.93532709       17.64383508
  974      1      11.24184322       10.03111549       14.68247479
  975      1      25.11959431        1.50183453       24.05672378
  976      1      20.86308761       23.91467656       12.42223243
  977      1      25.91640797       12.28720460       14.72556586
  978      1      17.18221060       27.24510685       11.18720867
  979      1       0.94773201        0.69202998        0.59380229
  980      1      14.17637824       11.59608316       20.74619385
  981      1      23.22043368       25.90152900        7.69698154
  982      1      15.17683840        3.47378259       22.27806535
  983      1      24.22707728       13.47880848       25.84440495
  984      1      12.86391627       17.41352448       18.71026515
  985      1      25.83172165        4.84633755        5.76969673
  986      1      14.85650296        5.76892905       17.38537759
  987      1      11.55003847       19.88454151        4.58226160
  988      1       3.56728228        3.26981138        2.89939282
  989      1       8.59099902       17.41610668        5.49139474
  990      1      25.79330308       13.59511804        6.52520791
  991      1       3.97095460       23.67412868       23.15625334
  992      1      17.70426874       16.94541219       16.81130096
  993      1      13.24693850       25.51776191        6.32798528
  994      1      22.34259382       13.33271629        4.75570192
  995      1      24.36141505       18.59797778       13.93023818
  996      1      19.24999067       25.27163517       20.89109992
  997      1      12.24836308        5.31106682       12.55008196
  998      1      14.31358913        2.19140562        1.08359193
  999      1      18.03345221        9.66355812        4.72046627
