run_id:  1016
total_energy:   -3028.753177489754
  1000 atoms
  1 atom types
  0.0   27.664  xlo xhi
  0.0   27.664  ylo yhi
  0.0   27.664  zlo zhi

 Atoms

    0      1       0.03345327       18.75251370        6.76930386
    1      1      14.71417357       18.60245641       19.60210293
    2      1      19.85434881       15.23787659       15.87130655
    3      1      17.39663684        8.35221030       17.16760657
    4      1      12.88117887       12.81381319       13.33909649
    5      1       8.83861634       16.66270271        0.72385959
    6      1      13.87760344       23.99848041       26.98577142
    7      1      24.73544856       22.88443335       12.51229632
    8      1       0.64765443       26.01172507        6.12646127
    9      1      26.75904618       27.54077410       27.08640770
   10      1      26.26331973       24.03599500       26.52741454
   11      1      24.72870748       12.83150150       12.65100670
   12      1      12.02873976       16.23261888       11.52018031
   13      1       8.77232435        2.83105953       23.39149037
   14      1      22.30856419       12.22037957       22.83661115
   15      1      16.03325727       21.61210511        8.00948319
   16      1      22.73206434       17.42952430        5.21776377
   17      1       5.63993526        9.39345784       26.31270771
   18      1      25.00597629       10.29510192        5.07887834
   19      1       8.64360911       12.93364538        1.24937841
   20      1      25.64641302       18.09376584        1.78021283
   21      1       2.97340161       23.64288318        7.21256437
   22      1       4.96855726        2.34469651       17.98935509
   23      1      10.41199641       14.37826398       23.85062686
   24      1       0.40478249       14.89861432       19.06460662
   25      1      27.42265943        9.48418064       21.19988413
   26      1      12.91549682       18.21650304        3.58544778
   27      1      22.34552488       19.10507714        9.29321555
   28      1      17.71106297        3.24526386       15.57766996
   29      1      27.30177842       22.37829383        5.60981145
   30      1       4.86309267       21.79159685       14.27253424
   31      1      16.70792528       18.84147163       22.84091251
   32      1      16.94959640        2.94478035        3.36436933
   33      1       9.80807398       16.62550032       12.26835876
   34      1       8.22157589        6.08632920       12.54832925
   35      1      15.74137082       27.20617250        3.59688264
   36      1      10.63235886        6.59470877       20.12451890
   37      1       7.06255130       26.92521301       23.02199375
   38      1      21.87902463        2.75404162       18.08753586
   39      1      10.72431035        0.54265722        1.29804211
   40      1      10.81387761        7.15361828        0.00052542
   41      1      10.62897631       25.34079851        8.65775157
   42      1       4.48149160        0.66990580       11.50475942
   43      1       8.93230222       18.78571605       23.15565370
   44      1       1.36236069       13.16381261       26.41634159
   45      1      23.73033740       11.00134300       19.49828681
   46      1      14.35990423        7.65998742       14.49152340
   47      1       6.62095820        5.00164367       25.70750982
   48      1      15.00039265       20.38692853       25.91243143
   49      1       9.76726767        4.83365534        8.98451035
   50      1       1.39961473       18.51211309        1.06799816
   51      1       7.37357579        2.40834305        1.30375801
   52      1      24.53153471       19.93555067       22.68310605
   53      1       0.17826820       21.46841984       13.43730335
   54      1       6.88077625       21.89101677       11.02885436
   55      1       4.65980788       24.46661368       19.60801114
   56      1       1.89350931       18.82794450        3.35194519
   57      1       5.74954757       11.75385164        9.29901737
   58      1      27.17941685       11.73480259        7.36296456
   59      1      23.34756153        4.42022481        0.21512306
   60      1       2.37802725        3.05765557       15.25757482
   61      1      18.79602241        0.73265325       23.31135109
   62      1       8.11526392       11.70218468        9.27829440
   63      1       5.38546399       27.61665775       17.41790179
   64      1      20.47493885       21.78092761       21.55770415
   65      1       7.08197296        5.12925971        3.62988774
   66      1      15.99389289       13.21834859       15.97189270
   67      1      24.44668401        7.22778507       23.55540571
   68      1       0.19828360       12.28552257       24.60923412
   69      1       7.15677097        3.00299042       18.45816894
   70      1      10.42424324       17.34762947       14.59594779
   71      1      13.74577861        9.71292640       17.37183937
   72      1      13.31227581       21.12357766        1.54232528
   73      1      24.85069447        3.52673738       14.77480043
   74      1      26.34133511        1.83986045       15.78528734
   75      1       2.67021447       10.68178007       10.63830300
   76      1       2.57890655       23.56083552       11.18732812
   77      1       7.73473383       19.93351865       12.08975326
   78      1       3.86036063       16.84122437        7.78727972
   79      1      23.71101991       26.58194950       16.60607460
   80      1       6.99081516        7.53340210        9.04438852
   81      1      18.81337259        4.00839835       21.37214949
   82      1      11.04902468       18.98618995       26.23827433
   83      1      14.74836880       27.42313594        5.81122130
   84      1       0.75432484       21.96300465       18.57546965
   85      1       5.66650559       17.98360763        2.74793020
   86      1      26.85086225       25.14305005       19.92587963
   87      1       9.60028763       14.97500265        8.00198233
   88      1      25.28883623        3.79415882       24.48470659
   89      1      24.21169574        5.80542223       15.86063281
   90      1      11.77357847        4.51125577        2.43683989
   91      1       0.55367608       12.56800551       15.63141193
   92      1      19.99534271        0.46191308       15.61832327
   93      1      16.11448705       10.25532216       20.35840057
   94      1      22.83660042       14.21701856       24.06121083
   95      1      17.76136274       20.82860802       23.70748604
   96      1      10.16572642       19.77063216       19.82555535
   97      1      12.97608228        9.46699821       11.25919368
   98      1      25.51394029       10.07568150       15.26943827
   99      1      27.53563766        6.23149089       26.30465947
  100      1      22.75881123       11.60951913        8.02784438
  101      1      15.04205504       26.04842336       23.98691432
  102      1       9.00966877       14.69052519       16.85733006
  103      1      18.93354175       22.90820224        5.01469567
  104      1      17.89396110       26.51813530        4.09752213
  105      1       2.91467053       25.45737509        5.79778509
  106      1       9.69642868       10.01810588       18.14782169
  107      1      11.20344531        5.35318421       22.13129997
  108      1      23.78279964        1.43596822        2.60648154
  109      1      16.05692731       24.53217456       27.65574159
  110      1      13.88192775       13.63154966       19.49911860
  111      1       1.78917564       15.70116424        7.48531033
  112      1      11.09726046        6.92111385       16.52928889
  113      1      12.86826656        7.76155597        0.99022177
  114      1      23.72584513       24.40657428        9.51559475
  115      1      17.10896963       14.59260602        5.22993830
  116      1      19.85186505        4.88197278       25.94341938
  117      1       8.65506583        2.40073559       14.73176987
  118      1      18.94653463       19.03820295       12.97275060
  119      1       8.88560706        2.13601334       17.07188839
  120      1      12.54664844        5.87978936       14.82581787
  121      1      18.14454520       15.15942762       27.07793657
  122      1      26.95098577       14.25470780        4.59811325
  123      1       5.90723715       19.25943475       16.48267667
  124      1      14.47522198        6.79937530       21.05336129
  125      1       2.64036277       12.34151348       20.88172667
  126      1      19.63925810        6.30789203        3.74500373
  127      1      11.13918042       13.92697663       16.31208843
  128      1      20.91671439       16.67373567        6.55264455
  129      1      14.97365342       22.22663012       20.95014744
  130      1       5.05051887       11.00406947        7.08885223
  131      1      14.90078887       17.25758793        6.20040324
  132      1      25.03941227       25.14356459       15.29188922
  133      1      16.89260725       22.75405032       22.47224601
  134      1       5.22060436       23.19359526        7.66201787
  135      1       6.07580755       20.99638060        0.33753741
  136      1       9.50730940        2.01673200        4.97800385
  137      1       3.02565788       19.46167979       27.32519048
  138      1       6.29832299       15.01754400       11.19973197
  139      1      12.94011275       15.87452613        3.72280804
  140      1       9.61039296       24.49245979       26.10876829
  141      1      26.81805384        0.63689033       13.78653400
  142      1       9.16367011        9.69404786       25.60782800
  143      1       3.88167575        9.00836310        6.87991614
  144      1      16.95809438       23.49740965       11.04540702
  145      1      21.61688003        8.60266899        1.02728499
  146      1       1.83182713       21.87316419        5.97135367
  147      1      11.42418747       26.89235586       10.28111671
  148      1      13.73088241        1.82543297       12.00828817
  149      1       7.35162630        1.17664059        7.91461248
  150      1       0.39709716       12.14875897        0.60495540
  151      1       0.09379506        9.14696612        2.40548714
  152      1      15.45712055       20.64031973        4.73943894
  153      1       7.80119516       25.62773120        3.65525178
  154      1      14.09563277       14.38859137       23.39564602
  155      1      24.79219029       17.63573462       19.27117614
  156      1       2.08370040       24.89975870        1.71723696
  157      1       8.72859681        8.29430026        5.45280763
  158      1       1.28550448       14.17775532       12.24291550
  159      1       2.12170767        6.90005805       26.38093771
  160      1       4.32473307       20.57145869       17.91534582
  161      1       5.55044493       16.36585340       18.46720294
  162      1       5.03851586        1.15194957       13.78396418
  163      1      27.44988802        7.08228785       14.33894867
  164      1      12.84525795       15.10172645        9.56921959
  165      1      19.43909535       23.58991145       26.70518511
  166      1       5.86487738       15.26942673       14.88793247
  167      1      11.07271300       18.61788194       17.94409970
  168      1      14.69396807       18.30126037        9.84623096
  169      1      26.60603544        7.24212824        3.02390901
  170      1      11.51128937       24.53178915        2.76367619
  171      1      20.63960914       15.34479711       12.06086559
  172      1       7.38437117       17.92137593        9.24543127
  173      1       1.75073911       14.47332360       21.28780851
  174      1      16.31009381        9.23674830        6.32559575
  175      1       2.25294951       21.12660572        3.71439926
  176      1      18.09358103       13.56577641        8.55539713
  177      1      25.74905282       23.31878983       22.59594793
  178      1      11.55570538       18.19800357        7.91188618
  179      1      25.56363193       18.06786477        4.06175770
  180      1       8.24816537       25.23135634       18.96577921
  181      1      22.65715381       21.01168500       18.74353707
  182      1      15.40459870       21.77204415        2.74482667
  183      1      21.13261948       26.87953189        2.93809892
  184      1      24.97305763        1.48097768       19.39101877
  185      1      21.91017333        8.33462822        6.16288197
  186      1       0.84793435       23.35186653       26.25609659
  187      1      12.60218756       18.43815902       22.56820339
  188      1      17.46016872       22.60073849       27.39700206
  189      1      14.91107294        5.56413699        6.08985879
  190      1      14.18445565       25.57890878       12.40347274
  191      1      10.81006220        3.09055628       22.00254379
  192      1      25.75775917       25.26684944       24.07377097
  193      1      21.80798010        0.98755731        1.61544880
  194      1      10.26571767        3.55468705       26.73528054
  195      1      18.05874882       24.74575299       17.50863188
  196      1      21.34667692       20.64114057       16.92897918
  197      1      16.45071189       25.41797830       12.34796215
  198      1       3.38131828       26.90629533       16.44392056
  199      1       1.22199463       18.07892342       10.21280854
  200      1       3.98977129       15.94344724       26.19629718
  201      1      16.02204359        5.80022094       19.41165323
  202      1      21.96925449       20.54212775       11.21717326
  203      1       3.75830426       24.85727662        3.48636307
  204      1      18.28155123        5.69932067       12.34237425
  205      1       9.14825858       10.58808093        1.86643291
  206      1      26.80149905        5.51829000       21.30782260
  207      1      26.26818740        7.92444420       18.31727156
  208      1      26.87014814        4.88059483       13.20641995
  209      1      12.94206360        8.99373918       25.11461155
  210      1       4.70377790        9.28637714       22.35777437
  211      1      24.80591444       22.20141869       26.75181363
  212      1       0.18250128       17.86098654        4.69489306
  213      1      23.20786656       16.69271182       20.95400017
  214      1      13.16870773       25.90549036       18.12659853
  215      1      14.17334300       15.29106226       21.18539144
  216      1      26.26737092       15.96560570        0.98876194
  217      1       4.87278978        3.19235906       26.42063381
  218      1       3.81048309       18.63239366        6.34664134
  219      1      20.48922282       10.71789500       23.79418680
  220      1       9.91307620       22.37107199       27.23584720
  221      1      11.38660427       26.01984223       25.47213097
  222      1       1.74207066       12.30555149       13.60283914
  223      1       9.78958868        8.87070916       16.11910769
  224      1      17.29490757        3.80495630       19.58491811
  225      1      16.56588108       11.39758101       12.93531569
  226      1      25.54362561       14.39328965        2.60415282
  227      1       6.15081667        5.97515668        0.12865205
  228      1      13.66133728       12.07620891       22.99788356
  229      1      26.74770384       20.20624637       21.61743853
  230      1       7.61899776        5.61339465       10.26770891
  231      1      22.43363869       19.84268923       13.50305188
  232      1       4.38672685       12.16135733        2.33410905
  233      1       1.15550424       19.03321989       21.63174860
  234      1      21.37830985       16.11403070       14.10326521
  235      1       1.78301291       27.05522479       18.23416216
  236      1      17.06626655       24.93591946       23.60436662
  237      1      20.06917575       24.02365638        1.28585723
  238      1      14.20155119        6.09514868       11.44863530
  239      1      22.25415994       25.21061027       17.92694418
  240      1      14.67502960        9.97374686       23.68753374
  241      1      19.52633624        7.84647520        5.41569133
  242      1       5.42702352       18.69232776       23.72993951
  243      1      24.85384085        2.74730204        0.90244271
  244      1      12.06879762       12.84893888        9.58842453
  245      1       6.88162403       24.96538939        7.52177350
  246      1      18.99833360        5.07434670        7.14166464
  247      1      12.15964659        3.65194921       15.83943600
  248      1      22.53154261        9.82202953       11.62545742
  249      1       1.42078525       18.84225701       16.10865024
  250      1      16.08845706       14.16599317       26.59487491
  251      1       3.00390607        1.15171852        3.76687382
  252      1       5.17191351       13.10590639        0.26223697
  253      1       5.75272214       23.45981591       21.52026056
  254      1      11.83831221        6.85261317       25.48173462
  255      1       0.99230053       15.75296752        5.22722176
  256      1      24.26170326        0.28925828        7.88131495
  257      1      24.63926604        5.17668200        7.77476131
  258      1      15.46291986       27.56675893        9.58911434
  259      1      23.39041530       18.15150018        1.43224254
  260      1      21.19487606       19.97030369       20.30948596
  261      1      25.55186930       16.70495337       24.54623216
  262      1      24.91080163        1.26603750       26.64489901
  263      1      19.96486064       16.89063027       24.08363058
  264      1      12.83365695       18.76022193        1.40808430
  265      1      17.49539889       21.21912530        6.11328256
  266      1       7.54394096       26.65767327       10.75104221
  267      1       9.34234029       25.00594172       21.03371170
  268      1       6.95591599       19.93112561        8.20276976
  269      1       5.41897971       21.49525155        9.31398801
  270      1      16.36029439        3.65569145        9.45054898
  271      1       4.91075389       10.93113625       11.65081663
  272      1      21.79680952       12.00437963       20.42412864
  273      1      15.99086041       21.48607639       11.68709156
  274      1       0.01856075        9.83313097        0.13008035
  275      1      22.25576482        3.79527260        5.49126228
  276      1      17.81236031        7.26753102       19.17442517
  277      1       4.89003905       17.15020317       21.97281472
  278      1       8.92635125       22.90584127       10.54095487
  279      1      20.25703883       24.80102632       16.37618717
  280      1       9.62096597        9.64879993        7.14092533
  281      1      26.77091607        0.84245342       22.32784319
  282      1       2.00126166        4.97791464        4.27014244
  283      1      20.91828660        1.14300104       26.03185556
  284      1       2.60119852        5.85868937       17.65071584
  285      1      22.79348335        7.69762516       14.83458515
  286      1      15.51260265       12.60691251       11.19996068
  287      1       4.38620601       14.69197941       24.25751469
  288      1       1.45152164       10.29915788       24.31517609
  289      1      21.44327576       25.38432624       21.61177272
  290      1      10.39441578       11.24005460       21.56695834
  291      1       4.08060664        4.11094401       16.61654972
  292      1       2.90030037       20.63535513       21.72441509
  293      1      23.45704213       25.71434976       27.19439269
  294      1      20.69219558        1.02900624       19.44334391
  295      1       0.11537069       14.08102361       23.01784801
  296      1      17.89327438       17.57341190       21.25319608
  297      1      14.29023931       15.04026977        0.23932218
  298      1       0.55482296        8.44391527       23.32756290
  299      1       4.78642551       27.08568107        0.58789444
  300      1      19.38921751       25.39852401        8.36428420
  301      1      14.64637724       14.68155447        2.49080776
  302      1       7.24093494       11.05175013       25.64248360
  303      1      17.24495669        4.37990517        1.57936723
  304      1      19.96617412        7.16808028       22.63153313
  305      1      16.81612701       23.89316969       15.59865810
  306      1       4.08467745        9.91411842        2.03757813
  307      1       1.54455775       20.30961800        9.49312945
  308      1       9.47270094        0.83594532        7.06738371
  309      1      24.91700330        1.08599600        5.81212871
  310      1      20.17927216       16.97261938       18.22144172
  311      1       0.96215703        2.99892450       27.62598579
  312      1       3.11480112       10.98390349       22.78447243
  313      1      23.80340202       22.18485889       22.99982835
  314      1       1.37055612        1.65839967       18.76303064
  315      1      14.86260699       27.48449021       17.57456193
  316      1      13.24653592       21.45353962        5.42524664
  317      1      25.63995896       18.97551795       11.96182568
  318      1      24.63023720       18.45923156        9.79956188
  319      1       4.23602420       24.76970490       12.35310941
  320      1       7.70530831       24.35708556       13.54950144
  321      1      12.54630881       17.64986395       24.85740698
  322      1       2.03628358        9.34411616        5.53177078
  323      1      20.30668505       13.01069600       12.27184009
  324      1       9.90568858        0.72354272       19.92150789
  325      1      23.94149169       22.64026473        8.01948603
  326      1       8.32897536       26.48578746       12.84390280
  327      1      23.44385688        5.99705689       11.52272921
  328      1      14.80957650        7.74311931        5.25262187
  329      1      21.66221553       22.35608006        7.60063227
  330      1      23.76064531       16.29102484       13.94340732
  331      1       3.77897977        5.19408526       12.55361595
  332      1      22.59549926       18.78274636       21.82260087
  333      1       0.67324597        3.79236202       21.90830701
  334      1      10.98993429        2.21885771       14.27817783
  335      1      26.22676410       21.19918478       11.82580020
  336      1      19.63939948       20.47632906       11.18780701
  337      1      24.84852479        5.18539417       22.61600977
  338      1      19.88036772        4.35700832       11.02059318
  339      1      19.06914035       19.70926202        7.10038687
  340      1       8.79227985       13.06082233       13.39177306
  341      1      11.44174484       11.05828026        1.92969248
  342      1      18.73643428       19.17859240       27.05451381
  343      1      26.91774665       15.85314573       15.42138182
  344      1       3.54383269       25.85799665       23.97118492
  345      1      10.17100431       21.98762595       19.24537453
  346      1      24.08966116       10.92450975        0.86195377
  347      1      13.47772416        5.13528340       25.08616508
  348      1      25.88284073        8.62496378       13.47717523
  349      1      26.23954220        9.58523504        6.93147391
  350      1      18.21743867        1.12740995        7.27634937
  351      1      26.84042836       22.92054979        3.32997229
  352      1       8.10308833        0.30269419       26.39721537
  353      1      12.93361692        2.31120184        8.26382584
  354      1      19.75302519        8.98444536       25.47733876
  355      1      16.12027797       14.90975856       24.34598345
  356      1      19.74238873       12.45374405       10.02071097
  357      1      18.21291517       13.27296727       19.19519105
  358      1      22.64217084       18.80949925       25.63572125
  359      1      25.84245502       25.29178769        9.97635359
  360      1      15.11951446        4.40062648        0.67484150
  361      1      12.37163682        3.04638591       25.69524700
  362      1      10.16692249       20.42707601        2.71838807
  363      1      26.12664572       24.74615905       12.13154251
  364      1      16.17998962        1.16438795        2.09135819
  365      1      18.99128408        0.78334389       17.81388101
  366      1       6.61929133        6.74991126       24.02128860
  367      1       6.66126398       15.70552432       21.70067735
  368      1       8.38590102       25.88712433       27.55198793
  369      1      15.57843896       20.08864715       18.02839427
  370      1      10.84780568       27.50123173       23.68550052
  371      1      26.94829278        3.73856067        1.47251988
  372      1      23.16412832        5.74696636       17.99744077
  373      1      14.34000163       12.64539930        3.50712598
  374      1      16.81298016       15.47075960        2.99337144
  375      1       6.23216319       14.50243817       19.72115366
  376      1      26.13113502       20.48775744        6.44179510
  377      1       9.04471184        8.36614982       19.79028511
  378      1       3.95022684        7.34811004       13.58219026
  379      1      27.04741047       12.80555347        9.50403102
  380      1      24.74904095       19.95183014       18.42230144
  381      1      12.73484509       22.28950139        9.46117467
  382      1      13.05211469       23.70863712       21.29773642
  383      1      23.92213309       10.49742075        9.80154064
  384      1      18.12416825       11.37200161       20.78846091
  385      1      14.31765734       20.59852916       16.09021642
  386      1       5.83718697       19.70133794        6.19158750
  387      1      27.06964232       19.76593383        0.83127879
  388      1       4.17004793       17.75967228       19.87346868
  389      1       1.05627594       10.92862822       17.33655004
  390      1      11.11894260       22.31293805        1.71903423
  391      1       1.60646238       17.62987500       23.50726355
  392      1       3.74795423       27.26108692        7.13900070
  393      1      26.44886864       21.53317741       15.36639938
  394      1       7.35181390        0.47609778       14.25102856
  395      1       4.54565553       27.18317193        3.04384053
  396      1       5.49463897        3.51983446       13.08521975
  397      1       5.62536096       15.32851343        7.29961796
  398      1       6.30824886        0.04838836       20.90266445
  399      1      27.08824046       17.86231526       16.58108106
  400      1       9.03017988       18.37984349       10.86808323
  401      1       7.88233211        1.29662110       10.21707617
  402      1       1.78902499        4.17065791       13.19328194
  403      1       5.67966606        3.31988756        4.06784308
  404      1       7.41135588        8.25664238       13.02590367
  405      1       1.04812488        7.47053931        8.67822229
  406      1       2.71699327        9.68007068       16.10347117
  407      1      25.27283728        2.22781697       10.43977539
  408      1      19.29934465       26.72511789       10.36489076
  409      1      18.38867703        2.68231970       10.48389676
  410      1       7.56516199        5.39750061       17.89533487
  411      1      18.33644597       17.21226242       25.82275763
  412      1      11.86710996       10.88278355       18.35075245
  413      1       6.16108551       25.19444999        0.22294528
  414      1      14.52316695       21.29102672       23.84904229
  415      1       3.09312930       15.63466159       12.24881497
  416      1      12.21425858       14.23939420       27.11076659
  417      1      21.62025551        1.52369987       10.68738521
  418      1      22.90873828        0.01234516       12.94736124
  419      1      10.66847997       26.39199335       12.69470461
  420      1       6.60320738       10.53542421       21.76581086
  421      1       0.61238616       12.43003465        4.11537496
  422      1       7.74099877        9.76321707        3.80233100
  423      1      19.91203083       23.24727801        8.94766222
  424      1      20.71069368        8.45501167       10.68380598
  425      1      22.40867165       24.13271828        0.98789863
  426      1      17.27036566       20.76121152       26.00570826
  427      1      12.76939820       18.44539089       11.17076052
  428      1       3.38234798       25.07219963       14.76406700
  429      1       5.83360400       12.97843659        4.02621184
  430      1       7.40024457       13.01260522       26.94180982
  431      1      24.49065154       22.82507254       14.83065079
  432      1      22.71704863       22.92481234       11.30282487
  433      1       3.56190219        3.31925016       24.40139512
  434      1       0.62423060       22.80644100       16.42492581
  435      1      21.11156411       25.78538102        6.72975429
  436      1       8.42508217       24.94410061        9.39340909
  437      1      15.99069635       23.79134245        8.82052103
  438      1      12.98089130       25.40299546        1.11389155
  439      1      20.73168101       13.12299848       16.68408560
  440      1       3.82992501        7.93810112       17.15042158
  441      1      17.24912606       25.18275356        7.42923580
  442      1      17.28089701       15.77352915        8.70851824
  443      1      10.10747863        5.08256831        0.85102143
  444      1      15.33305658       14.91735769       11.94052884
  445      1      11.01893582        9.07456904       12.56629900
  446      1       4.37330719       22.30464785        3.81234094
  447      1       4.93358311        7.03314823        6.03273430
  448      1      24.89748738       19.00498366       24.81134853
  449      1       6.46154191       27.36222430        4.39124596
  450      1       9.38123435       27.32336776       17.74072393
  451      1      27.56488114       26.70728332        4.06807955
  452      1      19.61587571        9.32059312        0.07881688
  453      1       1.95531336       22.88174803        0.55958194
  454      1       5.93426928       10.84734648       19.50073139
  455      1       0.58047954       21.63011917        2.02230131
  456      1      17.33139382       11.95820125       17.34878410
  457      1      11.14694798       24.24461607       13.73418259
  458      1       4.62892454       15.23089258        0.68240527
  459      1      22.03153700        3.99062504       12.18316760
  460      1      20.13084575        5.58126093       15.39002032
  461      1      19.79950263       12.87040314        1.86734106
  462      1       4.38362194       11.46710316       15.75346122
  463      1       5.28098983       27.52723953       24.48495785
  464      1      13.22805672       15.10183986       13.15711749
  465      1      23.14217883       22.78242465       25.13377537
  466      1      17.09559255        9.27681718       11.96348712
  467      1      24.61729390       20.19555508        4.67744047
  468      1      21.85741002        2.65405494       22.69297253
  469      1       7.77207854       16.40136003        7.49517034
  470      1       5.34008100        6.86264901        3.71360607
  471      1      25.62852208       11.66912748       25.06287005
  472      1      22.87606620        1.64577669        4.85772124
  473      1      22.50265504       11.99622691       15.41508620
  474      1      27.58853879       21.93980417       22.98390787
  475      1      11.44772627       21.27155895       25.88992591
  476      1      15.71842108        2.27441169       20.25429628
  477      1       7.74309917       11.44184125       18.14026700
  478      1      22.79411588       12.30709768       27.22071332
  479      1      11.83749564        1.29780928        4.52670682
  480      1      12.20591200        4.61104696        8.36344033
  481      1      22.35208094       19.73324542        5.13331518
  482      1      14.56625872       23.00012009       15.50765044
  483      1       6.71981219       14.43522128       23.62352199
  484      1      17.88890853       19.15725915        1.62785553
  485      1      18.68970585       14.96846142        1.72604010
  486      1      24.65756558       25.00095487        6.03136561
  487      1      19.44454814       22.25150571        2.84270591
  488      1      16.11126695        4.83112126       11.66261628
  489      1       9.31651621       17.13825229       16.83314409
  490      1      12.21857973       15.79446082       15.23715291
  491      1      11.94822542       20.31360515       16.45651647
  492      1      27.22981273       15.75740821       13.01195600
  493      1       3.17268982       22.97587009       15.73196654
  494      1      19.10452951       26.12516819        2.10867102
  495      1      17.90106461       22.74725403       18.65754374
  496      1       0.05674690       16.93223180        8.45981657
  497      1      23.50233421       25.12705573       24.94376703
  498      1      20.18099674       27.12752617       24.65026665
  499      1      24.65766871       15.47304292       15.89549712
  500      1      18.82623276       13.34868722        6.30859696
  501      1       6.38712585       21.99898827        2.38751499
  502      1      18.17205999       14.04538095       23.45518430
  503      1       1.63083093       19.41570632       13.64813635
  504      1      22.36458640        0.37548433       15.26702328
  505      1      17.88667941        5.39436151       14.73350708
  506      1      16.05076841       10.05864962       18.00538621
  507      1      22.04252962        6.74772455        9.73849659
  508      1      12.89469306        9.39147472        2.69551100
  509      1      13.77409166       27.56503191       13.58408655
  510      1       3.02517790       15.59140745        4.16641479
  511      1       2.51511278       16.44297808       16.14149652
  512      1       8.66991854        8.09068399       23.82827405
  513      1       7.92291651       16.84065603       26.24096478
  514      1      17.86941979       26.60887427       22.13533375
  515      1      12.70200602        4.77076865        6.09060106
  516      1      13.20123909       23.73806092        4.66382868
  517      1       7.10686711       20.18217468       22.98165519
  518      1       1.36615742       10.17840965       12.54197636
  519      1       9.98244883        5.53022417       18.06911739
  520      1      18.63046628       25.44048128       25.40198830
  521      1      23.18352361        1.99248944        9.05178884
  522      1       3.94381266        5.52189812       10.17955667
  523      1       3.11750813       15.91996706       22.69346854
  524      1       4.10763585       12.24121463       13.52690916
  525      1      16.35272793       17.27750627       24.61103926
  526      1       2.52022912       26.57473469        0.09575905
  527      1      12.87729689       25.99621220       20.58628893
  528      1      20.84122967       18.38689328       14.37376750
  529      1       3.92160948       21.82724017       27.17084108
  530      1       4.64679921        3.31818047        6.17787740
  531      1      14.80690521        8.22695968       12.21593710
  532      1       7.30912216        7.77396116       18.15482387
  533      1       6.48095921        3.33351658        7.57919136
  534      1       4.87765073        8.18994272       24.38734922
  535      1      14.25617786        3.45894102       16.82508335
  536      1       3.24366669        3.68854506        0.50752742
  537      1      23.74839758        6.78178346        3.09062853
  538      1      18.96802887       21.19692614       17.07779796
  539      1      20.48415679       23.08826996       14.60645656
  540      1      23.71340984        3.74273208       19.35074894
  541      1       1.21399170       23.83677669       20.12895156
  542      1      12.92688982       23.00485008       23.60800704
  543      1      13.38036522       23.58998749       13.42211358
  544      1       2.62733781       25.67536230       20.01026639
  545      1       3.01536257        1.57686851        6.12053855
  546      1      24.69206553       11.70881873       22.86072403
  547      1       7.99461565       18.91720516       19.90644677
  548      1      10.92149564       19.27368392        9.91323782
  549      1       4.68639807       22.19591776       24.86741341
  550      1       3.38879706       12.61222920        6.71842590
  551      1      23.84612296        2.38850596       12.65785330
  552      1      17.61316894        6.38883985        2.54874546
  553      1      18.53323302        3.13836880       17.73194312
  554      1      17.56377079        1.83468637       25.19901417
  555      1       6.77774696        3.23482785       22.24235455
  556      1      18.99472676        1.65762631       27.30458891
  557      1      17.76904207        7.95991588        0.82295517
  558      1      23.15209792       23.27453659       19.28066488
  559      1      22.82715792       25.33939370        2.85248933
  560      1       0.11502550        7.41544676       20.13010957
  561      1       7.72564747        4.75740188        1.44339600
  562      1       0.67257120       23.73651858       12.63283737
  563      1      20.27738969       16.70625382        2.12661936
  564      1       7.56267556       11.51705542       12.04577501
  565      1      26.83684329       24.27306564        6.74046496
  566      1      26.71354465       13.08233942       19.75545325
  567      1       0.83695563        2.12460167        7.13571910
  568      1      17.36454679        3.28338234        7.20458600
  569      1      27.31172691       24.96726364       16.03477039
  570      1      20.91781772       22.04287587       25.60726319
  571      1      13.40065849       15.21453928        5.95244287
  572      1      17.08824863       20.48236223       13.58135986
  573      1      25.50755521        0.29931011       17.43153986
  574      1       2.61128350       26.99115643       22.11091934
  575      1       8.91283533       18.80708916       25.51437557
  576      1       6.26620147       24.42259946        2.38065816
  577      1      13.12160718        7.47368427       17.73968003
  578      1      14.60951134       19.64139209       21.86046887
  579      1      15.71037440        8.53453983       21.97800737
  580      1      27.14857128       21.58135886        9.69817612
  581      1      21.25999447       18.76125360       23.74315873
  582      1      23.29082958       23.80346333        4.53143834
  583      1       6.69931511       21.06043097       20.75548587
  584      1      24.43641384       15.96050276       10.11457676
  585      1      20.64239581        6.87451418       24.87530545
  586      1      14.62828972        2.01541490        9.77982714
  587      1      25.86176495        5.80223530       11.16441396
  588      1      13.56337408        9.79745627       15.15096353
  589      1      17.20490698        4.76097809       22.98219036
  590      1      21.40514216       20.15237368        7.25637162
  591      1      18.69134377       16.83153873       12.06582071
  592      1       4.90563146       14.39955348       12.98686857
  593      1      11.02949954       14.75506329        3.06367164
  594      1      20.91270367       20.32330746        3.23725950
  595      1      17.84372641       27.66103080        0.74145947
  596      1      25.37827009       26.82340871        4.66058067
  597      1       0.19750526        4.97384237       17.52052540
  598      1       7.40041577        4.37755541       14.11138511
  599      1       8.90372251        4.42883252       25.07686716
  600      1       7.50959159       14.20313601        2.98668367
  601      1      11.75001529       15.90842402        7.73764430
  602      1      12.04227119        1.88849718       23.65407748
  603      1      17.56442233        4.21848912       25.21868050
  604      1      13.71833315        6.28040477        9.21232730
  605      1       3.55891033       12.22701870       26.50388712
  606      1      17.58044142        1.64019866       12.39292567
  607      1      27.21208626       17.12213430       18.87519009
  608      1      27.63901126       26.67213294       25.07025900
  609      1      16.24163870        6.83291451       15.77159933
  610      1      25.85370994       26.43414696       21.71305228
  611      1       4.49719794       12.72590129       19.41900803
  612      1      19.49833097        9.16793044       16.41709759
  613      1      25.40889570       23.30528109       20.13093644
  614      1      11.52933259       26.54557066        4.80589713
  615      1      18.00774368       10.45051887        9.97556250
  616      1       2.08063172       19.45832684       25.11712456
  617      1      13.64843948       26.14520947       10.19190228
  618      1       9.02967545       20.82226533        7.33575327
  619      1       1.98160261       19.93632470        7.18208945
  620      1      10.74980693       19.85963913       22.21882758
  621      1       8.06195797       22.63258162       16.69286690
  622      1      11.96305779        9.56662268        7.21866539
  623      1       5.79123454        0.92347054       26.67566887
  624      1      16.86535158       15.92607643       13.35389416
  625      1      15.21414142       11.41517188        7.15594336
  626      1      22.64002983        3.90840313        7.81507624
  627      1       5.82836923        4.26182366        9.60327008
  628      1      15.99956541       16.66011223       20.23383978
  629      1      10.66423415       22.03731313       23.40421531
  630      1      16.16324296       17.69485277        2.22748453
  631      1      20.62301772       13.57893730       19.10347690
  632      1      24.37532993        6.39880788        0.76002597
  633      1       0.92379199       14.66223838       16.68647461
  634      1       1.27816963        2.84750620       24.03203043
  635      1      18.26762570       22.10707991       14.98996737
  636      1      16.91722218       26.46157264       26.66577385
  637      1       5.67979054       17.65495554       25.98347086
  638      1       9.07166280        8.83512317        0.12972329
  639      1      23.61884959       22.09787531        1.17006211
  640      1      27.50072074        3.93179005       25.58892064
  641      1      11.00840270        1.20561353        8.92486706
  642      1       9.14119063       15.10203873        4.42957467
  643      1       4.65107407       20.10501136       20.14436682
  644      1       1.34895848        2.69727474       11.16814122
  645      1      14.50151286       27.12894667       21.88214879
  646      1      19.32965632       13.75559066       25.54564339
  647      1      21.33675674       15.77332710       27.46503038
  648      1      12.32832511       15.23587558       24.86812722
  649      1      21.54175862       18.26890719       16.74747995
  650      1      20.11286442        6.54224205       19.08730980
  651      1      26.90887461        9.66418232       11.70506001
  652      1       5.23291281       14.02214207        9.26969887
  653      1      25.30130095       12.03777331       18.19888464
  654      1       8.07261688       20.88948221        3.61046894
  655      1       2.02523418       12.79192624        2.27081755
  656      1      11.87010341       13.05264204        5.93707571
  657      1       6.64934256       16.05178118        1.80149785
  658      1      26.21962192       20.37349703       26.28885769
  659      1       7.94815023       22.68911689       19.01415706
  660      1      16.25162852        7.56775934       26.69467116
  661      1      19.39790867       18.52966228        3.32260692
  662      1       0.94254640       16.24301252        0.73857694
  663      1       1.17106771       25.36099628       14.21456512
  664      1      17.12819669        9.81335674        2.42839187
  665      1      15.00601476       14.54312995       17.59347873
  666      1      11.99545409       12.64229702        3.58435425
  667      1      13.07768657       19.80431258       12.99503249
  668      1      21.15253185        9.08935013       22.10733017
  669      1      20.73262629        4.97942395        8.85836266
  670      1      24.07496674        7.55403104       19.21385248
  671      1       8.49546195       11.71536873        6.83143339
  672      1       7.57398351       13.62707157       15.28408919
  673      1      16.39048166       27.31158628        7.48477399
  674      1       1.55480263       12.82977313       10.24643673
  675      1      25.68466477       11.55190750       10.92872360
  676      1       8.22572121        4.81245688        7.06664464
  677      1      20.40252053        4.73622967       17.60295828
  678      1      10.44112580       18.61845427        0.94777383
  679      1       1.95499098       22.76552773       22.07112344
  680      1       3.37077462        2.46943399       19.77303780
  681      1      12.63891081        8.67265090        5.06121562
  682      1      19.93272112        1.97278078       21.61820675
  683      1      15.33542352       23.85227976        3.76544358
  684      1      23.29763423        9.74771539       15.91616659
  685      1       2.30013216        8.82528558        3.19695332
  686      1      22.44506869       10.16918266        2.58548894
  687      1       4.23350934       12.30737521       24.29437260
  688      1      20.71978749       26.30145260       12.37496395
  689      1       5.27995639        8.60917697       18.87603366
  690      1      16.93176817       15.40067614       18.51869876
  691      1      20.94811473       10.24166866        7.22553035
  692      1      15.61644603        5.30218171       26.22476986
  693      1      18.97282888       17.80087833        5.72657491
  694      1       1.90287191       25.51251376       25.69641351
  695      1      21.35532776        6.53426823        2.17061461
  696      1      23.53592966        8.16661982       27.13409439
  697      1      19.02964029        0.68662598        5.14934400
  698      1      20.97247480       11.78753710        3.65850447
  699      1      23.50107765        8.31845943       21.64594547
  700      1      21.16219760       27.60463703        5.15326172
  701      1      25.04455188        8.74735784        8.74288318
  702      1      10.73256506       23.14822353       21.10478279
  703      1      10.51264086        6.74074981       12.08112664
  704      1      22.31193931       21.66282781       15.02364014
  705      1      19.29096705       15.84919471       22.05803904
  706      1       0.23137707        3.12151146        3.59186215
  707      1      10.77634318       26.77237914       21.39503086
  708      1      15.12625288       19.34207472       14.33794676
  709      1      16.42550134       27.61244945       20.60336501
  710      1      23.32222471        4.46589022       25.61932839
  711      1      14.52555620       17.40606436        0.42659804
  712      1       8.70363766        0.56382365       24.12095501
  713      1       5.48774965       17.71776505       14.59997419
  714      1       2.43787679        6.49892506       19.92396885
  715      1      16.30863347       20.09561365        9.81767971
  716      1      10.18999219       19.02819384        6.25166460
  717      1       1.33402229       27.53719277       13.40683464
  718      1      11.32715625       10.70961715       25.47113722
  719      1      25.42799975       19.42992067       16.06477006
  720      1       2.03277172       20.00983906       18.03190578
  721      1      19.14496669        2.62193214        3.81188109
  722      1       3.72587829       10.08978829       27.35349601
  723      1      24.03119741        4.81634423        4.30739926
  724      1      12.28471476       11.83532321       27.40877227
  725      1      10.09871206       13.38034114       20.26486480
  726      1      23.32740967        8.84205320        4.30126892
  727      1      13.69830224        1.94458126        5.97815465
  728      1      23.41615751        7.29470122        7.92780837
  729      1       0.13652442       16.05293661       24.36582849
  730      1      26.71889710        2.69854375        5.63799631
  731      1       0.42791301       21.21953143       25.14413511
  732      1      26.28921127        4.41365566       19.31484962
  733      1       7.27524646       17.93403338       17.85986029
  734      1       1.46983070       11.55606705        6.00847977
  735      1      19.21715434        2.14296725       14.21901187
  736      1       7.72052794        1.85574775       20.40568673
  737      1      20.92993603       14.33475197        6.45923842
  738      1      12.82001604       11.67795907        7.57971472
  739      1      13.80281399       18.71914607        7.77317584
  740      1      23.17958817       14.50165073        2.86337756
  741      1      19.15429858       11.48352647       15.97128209
  742      1       8.25261663       13.61947702       18.82695416
  743      1      22.93681611        6.79217600       25.25907125
  744      1       7.06866488       21.80809754       24.66958274
  745      1       3.34934509       21.34411092       10.65302726
  746      1       0.97139485        0.50523673       23.51549713
  747      1       6.05659763        8.73603002        2.51026911
  748      1       5.71779084       17.28558903       10.78295479
  749      1       9.99533862       26.22549819        6.54710614
  750      1      18.48142639       19.41758232        9.39536243
  751      1       9.22087884        1.74236266        0.07498439
  752      1      22.66070593        2.63218704       15.76405979
  753      1       3.78777818       20.28689538       23.85181250
  754      1      15.73635984        3.37398868        5.44076878
  755      1       7.12390177       18.87420384        4.39082501
  756      1      23.14182837       17.05507258       27.11671217
  757      1       3.81319663       20.25812967       12.73543512
  758      1      25.62360681        9.63101376       26.46312611
  759      1       8.80257857        8.94639699        9.39816271
  760      1       0.11477254       17.98541911       12.28026849
  761      1       3.17598760       17.20398041       13.97734763
  762      1      11.05572612       19.64997313       14.37588824
  763      1       7.43183103        1.66950148        3.65737949
  764      1       2.60014794       15.03443771        1.96050290
  765      1       3.73823894       17.75099485        4.12449936
  766      1      19.17818819       18.71063236       19.58574479
  767      1      14.61054266       18.12873772       25.87110595
  768      1      18.61724299       23.03057507       20.86938137
  769      1      17.08625631       16.50825888        6.51306374
  770      1      20.71502121        8.83427609       18.44005356
  771      1      24.40663208       13.15654369       16.27012062
  772      1       8.69726947       23.40354182       24.15420264
  773      1      14.01616066        1.92249720       18.63654904
  774      1      20.13463089        2.69110130        1.55971857
  775      1      10.46454502        7.19292693        9.74849729
  776      1      20.61350751        5.54803870       21.14493921
  777      1      15.59464854        2.87601267       12.91535822
  778      1      13.27435651       11.82121514       11.26611667
  779      1      19.43552418        9.08397722        8.74783942
  780      1       7.35978369       27.02702969       16.25748734
  781      1       4.79352503        7.68519816       10.02042820
  782      1      24.54859210       26.82372392        2.52158973
  783      1       3.63817608        5.99364029        0.48969852
  784      1       3.72455115        5.13769951       22.99063478
  785      1      13.69020672       23.57781111       17.65129389
  786      1       7.19182788        6.91228174        6.79651802
  787      1       9.66653355       13.61947771        6.20400875
  788      1       4.96570156        1.94520268       23.26582995
  789      1      27.24941242        2.16115170       20.29190664
  790      1      22.08728142       15.38214844       10.03212250
  791      1      21.50587962       13.49301285        8.65917727
  792      1       6.50806766       12.01399624       23.63524541
  793      1      23.95578921       12.20495905        6.04757044
  794      1       6.11415707       26.19532683       19.21210485
  795      1      27.48048078       25.05450135        2.43771582
  796      1      25.02266147       15.17880804       12.29021275
  797      1      25.73599406       13.66054741       21.93460610
  798      1      15.14532630       25.42744200        2.14582649
  799      1       4.51299452       14.24082726        5.42212455
  800      1      10.11592265        6.22946033       24.04542247
  801      1      10.69134033        7.50877370        4.37346200
  802      1      26.45368337        6.50198419       16.41952019
  803      1      20.10305719       20.86805587       23.67797633
  804      1       9.46086395       22.93155533       12.90419547
  805      1      21.17811003       23.62354794        5.73453340
  806      1       1.82725924        9.23166486       26.48441055
  807      1      10.74587411        3.41320712       17.70907525
  808      1      21.07422787        3.69619186       14.31701463
  809      1      21.02570585       20.09327469       26.94386551
  810      1      27.56232225        6.26965748        4.95316837
  811      1       8.54038555       17.03188614       21.52092008
  812      1      15.87085326        5.96563921        8.22181193
  813      1      16.53248243       11.83428846       26.79351984
  814      1       8.34091223       14.69702140       25.27620361
  815      1       7.60772066       24.68955284       22.52352691
  816      1      26.42197906        7.87740279       24.84180109
  817      1      14.53692717       10.97432773        0.06824868
  818      1      11.64951968        3.02754056       12.17549049
  819      1      10.87184615       12.37865368       14.46076646
  820      1       1.68800346       18.21024041       19.55675215
  821      1      13.80692837       21.06578224        7.66613823
  822      1       0.76179365       11.33391229       19.85554630
  823      1       0.73816311        3.62153746        9.01311736
  824      1      10.27428872       14.71460581        0.86508274
  825      1      27.34686408       23.86833156        8.96525086
  826      1       6.16107519        5.23321047       15.95113435
  827      1       0.86980713        0.90506587        2.97985214
  828      1       5.89888103        5.63153342       22.08754163
  829      1       8.82502899        9.61200672       11.75216627
  830      1      26.63993288       10.91390742        3.45548933
  831      1      19.59218418       11.25071774        5.49594734
  832      1       2.19842005        5.39515747        8.52822319
  833      1      15.45648497        0.03935438       15.26356902
  834      1       4.14271355        0.93424632       21.36755245
  835      1      25.86942431       12.26313417        1.69359845
  836      1       8.37154948       24.63053220        5.70441670
  837      1       2.65809399        4.45309647       21.01540129
  838      1       7.43159989       24.69516372       15.77992169
  839      1      22.03500319       26.72349915       19.77234870
  840      1      22.26938378       23.20447059       21.45901152
  841      1      10.33324268       15.37304901       21.61811347
  842      1       5.24217584       18.82395233        0.40497243
  843      1      12.28684677       10.18590968       20.47394726
  844      1      24.97652903       15.67007855       26.60504454
  845      1      13.30070758       24.82390314       24.93739715
  846      1       2.19881691        0.51361425       11.20888746
  847      1      24.34431163       15.51471510       22.74902629
  848      1       5.87317552       23.21728482       12.72071670
  849      1      19.14510287        7.94695051       12.47435245
  850      1      17.50737588       21.46196311        1.79065678
  851      1      15.64543609        2.42723621       15.22974621
  852      1      16.72522800       10.69275092       24.65567098
  853      1      15.15908572       13.33815445        5.64937247
  854      1      11.66543421        2.34630869       19.61941531
  855      1      11.52346381       22.51202983       17.35039918
  856      1       1.90731766        8.47743911       14.14022784
  857      1      23.21665157        0.78759169       22.86110839
  858      1       6.97253290       21.03011280       15.34760962
  859      1       9.02543900        4.33265267        4.99466184
  860      1      10.41059305       24.19784035       16.00711033
  861      1       3.33558437        5.23781918        6.35854032
  862      1      14.26990610        1.50537147       23.21650270
  863      1      20.22220591       10.23614890       20.29630270
  864      1      18.55132750       12.38189636       13.78243948
  865      1      27.23303684       26.34621743       17.89946720
  866      1       6.79959082        8.18258401        0.32295164
  867      1      11.05672739        5.27154558        4.50474226
  868      1      22.76212810        0.30758580       27.21804260
  869      1      23.63627487       17.09842242       17.26293177
  870      1      20.98229023        4.70202255        0.60753544
  871      1       5.25063697        8.60571488       12.11261191
  872      1      25.02697709       10.06307514       21.29849540
  873      1      13.94652405       16.40866312       16.67642029
  874      1       3.40842435       17.02281907       10.19609185
  875      1       4.43405771       15.25262851       16.73376918
  876      1      21.84389257       13.80618954        0.98983163
  877      1       2.95397404        0.85719742       14.81788897
  878      1       3.13498390        6.59488121        2.80610185
  879      1      26.10012607       27.62319178        9.30537236
  880      1       6.78516064       11.32162177       15.97254924
  881      1      15.09349848       18.46764525        4.20413376
  882      1      22.96188015        9.28234819       18.17571060
  883      1      13.79212541        5.83971482        1.95912069
  884      1       5.22648360       26.30596941       10.81356638
  885      1       2.74082304        7.05191229       24.07176005
  886      1       0.36587370       27.63522981        7.90394320
  887      1       1.92142017       24.52752621        9.17225884
  888      1      18.81513614       17.17796814        9.75332746
  889      1      22.45937607       16.68175945        3.02407206
  890      1       1.51868892       15.52112017       26.28237999
  891      1      12.30053340       16.62466302       21.02295520
  892      1      13.62364567       21.84303147       11.81624964
  893      1      25.91008008       25.76188025        0.60708549
  894      1      12.17765835       27.20265470       27.40868649
  895      1       2.85124883       13.81527015        8.64468862
  896      1      19.45455800       26.24877629       14.52348222
  897      1       2.96350042        8.83878778        9.06004407
  898      1      22.83584519        4.41908704       21.45753555
  899      1      25.16951699       26.56703029       13.37221892
  900      1      17.53383036        7.23290640       22.94656241
  901      1      19.22778165       22.81153730       11.11094250
  902      1      17.09176600       25.94890658       14.49072635
  903      1      26.68383164        5.99554007        0.92303457
  904      1      17.78564704       14.35873481       14.78450718
  905      1      14.24659201        8.77253951       27.03842646
  906      1      17.11825390       26.92027235       18.36430862
  907      1      23.94949887       27.60822971       20.79228358
  908      1       0.61547687        2.80835477       16.75355677
  909      1      11.25532206       26.37778040       16.64753992
  910      1       9.60691482       26.10229535        2.09288920
  911      1      26.76204220        7.82939426       10.14799570
  912      1       6.02009769        2.49355772       10.93579840
  913      1      20.39993125        7.81632696       14.65831229
  914      1      22.09495048       26.46870492       23.57785757
  915      1       6.71114680       11.29160528        5.36654282
  916      1      24.61038667       22.17992992        3.33023048
  917      1      22.22647146       20.21229303        1.30040137
  918      1      26.51659590       10.08281621       17.37023757
  919      1       5.36178002        7.35964147       15.49581485
  920      1      11.31769567       12.10488926       23.54960312
  921      1       8.94743959       20.81036471       13.86933792
  922      1      13.57129940        5.24281257       22.62530909
  923      1      17.52214530        8.51752752       24.96000649
  924      1      17.28694148       24.52943869        5.14978909
  925      1      26.11854977       14.99799656        8.66916572
  926      1       5.74721874       18.80282385       12.54784897
  927      1      11.62987939       27.60155852       14.50459412
  928      1      16.44390843       12.02770300        9.08982937
  929      1      13.65979377        1.27906656       26.74719529
  930      1      17.76708623       19.28591229       17.69699731
  931      1      19.61843972        1.10176887        9.33271641
  932      1       3.53093463       13.10865723       17.26526563
  933      1      20.01016111        4.41921976        5.04460769
  934      1       2.22605298       26.89385827        9.10978493
  935      1      21.00436593       15.72521791       20.18076615
  936      1      15.43500344        7.29837603        3.10738515
  937      1      14.88829717       10.65349984        2.35061365
  938      1      22.40899577       11.95717628       12.96081524
  939      1      14.73401690       11.77174029       14.47157243
  940      1       8.15127469       22.21228349        5.58321301
  941      1      15.80118814       17.20451652       15.19630357
  942      1       5.71766699       21.98308993        5.76558594
  943      1      12.63262169        7.79105394       19.98465322
  944      1      12.23364376        2.14683094        2.36177278
  945      1      26.09039739        4.24613397        9.45863718
  946      1      15.45316673        0.52921135       25.32370699
  947      1      12.49170638        8.29991168        9.19654377
  948      1      15.56619940       22.30464811       18.76325314
  949      1      21.39701487        3.23588349       24.96119012
  950      1      25.28038293       20.71412904        8.56053626
  951      1      10.41267514       21.55719758        9.25752397
  952      1       8.69171267        9.49576799       21.82892880
  953      1      18.00116518        7.48682383        7.47050856
  954      1       9.96163438        2.73770568       10.34918660
  955      1      23.67853886        8.02908762       12.76136586
  956      1      21.04628753       15.19497146       25.18858875
  957      1      13.47635576       21.72427008       27.02470709
  958      1      13.62744445       24.43770544        8.60791530
  959      1      15.18305599       15.98017753        9.84268644
  960      1       9.63079014       13.49491389        9.82458591
  961      1      21.04992775       17.11788497        8.90499041
  962      1      26.91247251        2.38318555       12.23730982
  963      1       6.09201335       27.12025483        6.82775604
  964      1       8.65754127       14.66837196       11.67834846
  965      1       8.02021145       20.88871699       26.58048183
  966      1       7.38682437        8.91677550       15.45974125
  967      1      18.34729196       11.28606475        0.76444270
  968      1       4.52854806        7.49143692       20.75517727
  969      1      11.77342326       13.19843021       18.56159639
  970      1      26.37344983       21.25651487       19.54564858
  971      1       0.33589703        8.06079825        6.48408063
  972      1      18.33531773       11.68435359       23.12611238
  973      1       4.54776608       22.91594417       17.68373037
  974      1      11.24381266       10.03667277       14.68239709
  975      1      25.11606762        1.50385526       24.06032203
  976      1      20.85536069       23.91573020       12.41938277
  977      1      25.90894267       12.30001373       14.72556596
  978      1      17.16123652       27.23778997       11.18832391
  979      1       0.94902743        0.68931251        0.59640979
  980      1      14.18014105       11.59822639       20.74794154
  981      1      23.21969442       25.90448857        7.69929146
  982      1      15.17331788        3.47336286       22.27904981
  983      1      24.22905531       13.48090343       25.84299874
  984      1      12.87435253       17.40741643       18.71390649
  985      1      25.82495208        4.85117375        5.77035333
  986      1      14.85282345        5.76925235       17.38774585
  987      1      11.57268084       19.88583328        4.57527923
  988      1       3.56505545        3.26713337        2.90328440
  989      1       8.62838803       17.34842141        5.45396355
  990      1      25.79080004       13.59963695        6.52355076
  991      1       3.97306693       23.67407575       23.14877334
  992      1      17.70733664       16.94849707       16.80716720
  993      1      13.30324899       25.51933080        6.28243642
  994      1      22.34354178       13.33522035        4.75400295
  995      1      24.36682564       18.60987276       13.92684842
  996      1      19.25010775       25.27252701       20.88948814
  997      1      12.24242042        5.31067367       12.55866455
  998      1      14.31075361        2.18352777        1.09002771
  999      1      18.03521474        9.66210227        4.72010578
