run_id:  1017
total_energy:   -3028.1438976808945
  1000 atoms
  1 atom types
  0.0   27.664  xlo xhi
  0.0   27.664  ylo yhi
  0.0   27.664  zlo zhi

 Atoms

    0      1       0.02189558       18.75362116        6.75861120
    1      1      14.70947247       18.61212621       19.60315860
    2      1      19.85591424       15.23637628       15.87484879
    3      1      17.39571865        8.35654981       17.16558295
    4      1      12.87585859       12.81657928       13.34425203
    5      1       8.83524213       16.66487813        0.72146801
    6      1      13.93034829       23.99445668       26.98467427
    7      1      24.73134042       22.88182304       12.50439998
    8      1       0.62371724       26.00553503        6.11610395
    9      1      26.78952790       27.56296770       27.07131241
   10      1      26.29490255       24.03780543       26.51301685
   11      1      24.72798755       12.82704347       12.64857853
   12      1      12.02097149       16.23706830       11.52997040
   13      1       8.77525701        2.82752498       23.39771968
   14      1      22.31369834       12.21591385       22.83193356
   15      1      16.01333576       21.60582374        8.04195245
   16      1      22.74269149       17.41018334        5.22972890
   17      1       5.64089653        9.39300965       26.31166947
   18      1      25.00902067       10.29087519        5.08007432
   19      1       8.63880704       12.93678974        1.25023297
   20      1      25.65074277       18.08516256        1.77383996
   21      1       2.96485465       23.64024983        7.21242653
   22      1       4.98605565        2.30195252       17.97136356
   23      1      10.40752346       14.38100481       23.84497272
   24      1       0.40449922       14.89429674       19.05938985
   25      1      27.42975693        9.48072190       21.19566685
   26      1      12.90336123       18.21145261        3.59581806
   27      1      22.33848856       19.10015120        9.29737565
   28      1      17.71947167        3.25111643       15.57811159
   29      1      27.28111074       22.37844377        5.58561786
   30      1       4.80293483       21.73630880       14.26540703
   31      1      16.70324234       18.84049951       22.84833207
   32      1      16.92897188        2.97485252        3.38137501
   33      1       9.80161536       16.63062478       12.28162272
   34      1       8.22185330        6.07457678       12.55503113
   35      1      15.70037574       27.21642729        3.61107262
   36      1      10.63099882        6.59033808       20.12399651
   37      1       7.07420807       26.92202766       23.02450007
   38      1      21.88847746        2.75801053       18.08156574
   39      1      10.73091461        0.53831244        1.30075924
   40      1      10.80608074        7.15592227       27.66208720
   41      1      10.63304902       25.34364043        8.65987107
   42      1       4.49099559        0.64252075       11.51185392
   43      1       8.93804468       18.79343655       23.14368329
   44      1       1.36637160       13.16059334       26.41578798
   45      1      23.73358258       11.00125069       19.49206388
   46      1      14.35986804        7.66365238       14.49364722
   47      1       6.62131396        5.00060565       25.70969422
   48      1      14.99426704       20.37902620       25.91170823
   49      1       9.76107263        4.83213216        8.99031026
   50      1       1.40150100       18.51209966        1.06508179
   51      1       7.37504277        2.40404394        1.30865313
   52      1      24.53662800       19.92072191       22.67537325
   53      1       0.16936591       21.46141899       13.42813534
   54      1       6.87995314       21.89653679       11.08031557
   55      1       4.66563162       24.46178353       19.59459838
   56      1       1.89029155       18.83223086        3.34883134
   57      1       5.74411476       11.75472972        9.30132070
   58      1      27.18009136       11.73136088        7.36289500
   59      1      23.35391669        4.43283929        0.21059543
   60      1       2.38867712        3.03900457       15.25278820
   61      1      18.78873247        0.78151012       23.28105177
   62      1       8.10969668       11.70423146        9.28727156
   63      1       5.42221032       27.55515786       17.40184023
   64      1      20.48131741       21.77023823       21.56081376
   65      1       7.07704084        5.12606322        3.63344609
   66      1      15.98882479       13.22227989       15.97468886
   67      1      24.45574556        7.24144502       23.55052639
   68      1       0.20450189       12.28098945       24.60752127
   69      1       7.16518568        2.97835434       18.45060832
   70      1      10.41707808       17.35801885       14.60324984
   71      1      13.74204080        9.71334486       17.37191394
   72      1      13.30804310       21.11463531        1.54715256
   73      1      24.86048385        3.52330739       14.76608190
   74      1      26.34959734        1.83413028       15.77492163
   75      1       2.67160643       10.67555362       10.63619176
   76      1       2.58541829       23.55415458       11.18876199
   77      1       7.73576605       19.94973613       12.15774727
   78      1       3.85439408       16.84395166        7.78785792
   79      1      23.71601413       26.58011872       16.60178731
   80      1       6.98783524        7.52497439        9.05162605
   81      1      18.81805497        4.03137508       21.36245593
   82      1      11.05189720       18.99018863       26.23720252
   83      1      14.72629280       27.42614402        5.82685955
   84      1       0.74045594       21.96600841       18.57459774
   85      1       5.66624436       17.98716982        2.75322751
   86      1      26.85424257       25.14475140       19.91723367
   87      1       9.59319249       14.97694579        8.00960596
   88      1      25.30195406        3.81607841       24.47327067
   89      1      24.21950772        5.80330338       15.85159816
   90      1      11.76343596        4.52573376        2.44209600
   91      1       0.55692446       12.56380256       15.62903544
   92      1      20.00223477        0.46537753       15.61738219
   93      1      16.10983096       10.25807492       20.35455115
   94      1      22.84031509       14.20480543       24.06182251
   95      1      17.76157825       20.81721696       23.73597124
   96      1      10.14553596       19.78637042       19.79156505
   97      1      12.97166941        9.47010889       11.26381943
   98      1      25.51820606       10.07201896       15.26607865
   99      1      27.54290508        6.23478576       26.30678057
  100      1      22.76035525       11.60538164        8.03092582
  101      1      15.06943462       26.05323563       24.00916763
  102      1       9.00076173       14.69321830       16.85534751
  103      1      18.88911386       22.87413212        5.11020374
  104      1      17.85556066       26.53906972        4.09225434
  105      1       2.89758763       25.45486325        5.79641968
  106      1       9.69376751       10.01463836       18.14789554
  107      1      11.20173121        5.35301748       22.13285779
  108      1      23.76616316        1.43523014        2.59991487
  109      1      16.12266032       24.55016858        0.01140284
  110      1      13.87557163       13.63521973       19.49759042
  111      1       1.78617155       15.70148174        7.48226411
  112      1      11.09444094        6.91750900       16.53096901
  113      1      12.85682569        7.76821959        0.98801102
  114      1      23.71656990       24.39861305        9.49776779
  115      1      17.09998918       14.58395747        5.23668782
  116      1      19.85272403        4.91200647       25.94169364
  117      1       8.65952079        2.37172044       14.73025651
  118      1      18.94288111       19.03968875       12.98154583
  119      1       8.89264039        2.11519978       17.06636398
  120      1      12.54806685        5.88380194       14.82667781
  121      1      18.13847884       15.13871682       27.07667701
  122      1      26.95338352       14.25073002        4.59858218
  123      1       5.84005622       19.22954304       16.48202848
  124      1      14.47314664        6.80158106       21.05232454
  125      1       2.64336335       12.33748521       20.87931251
  126      1      19.63550445        6.31470787        3.74522491
  127      1      11.13147591       13.93155994       16.31306668
  128      1      20.91824941       16.66083024        6.56312045
  129      1      14.99157886       22.23977922       20.95966579
  130      1       5.04827181       11.00378337        7.09116741
  131      1      14.88835967       17.25134117        6.21645598
  132      1      25.03969664       25.13948725       15.28538928
  133      1      16.90711517       22.76373553       22.51575513
  134      1       5.21614890       23.19419030        7.67632741
  135      1       6.07930585       20.99690207        0.34143096
  136      1       9.50047574        2.02062314        4.98563294
  137      1       3.02956799       19.46044170       27.32409802
  138      1       6.29519748       15.01784678       11.20265543
  139      1      12.93291914       15.86813459        3.72866554
  140      1       9.62292709       24.49233835       26.11459078
  141      1      26.82422237        0.62823217       13.77846141
  142      1       9.16058771        9.69519824       25.60661848
  143      1       3.88179582        9.00587311        6.88334394
  144      1      16.96079709       23.49984435       11.05299271
  145      1      21.61508497        8.60913393        1.02894011
  146      1       1.81492476       21.87740817        5.96292515
  147      1      11.43011884       26.90064244       10.27737787
  148      1      13.74116873        1.84183251       12.00454516
  149      1       7.34919405        1.16763780        7.92654463
  150      1       0.40246059       12.14603397        0.60539201
  151      1       0.09935989        9.14535876        2.40733199
  152      1      15.42579099       20.63105546        4.77500620
  153      1       7.80579702       25.62383724        3.66426950
  154      1      14.08629175       14.38982693       23.39175443
  155      1      24.79084112       17.63138032       19.26453325
  156      1       2.08660936       24.89745438        1.71785106
  157      1       8.72066137        8.29666860        5.46041491
  158      1       1.28096600       14.16961828       12.23830201
  159      1       2.12897293        6.89943409       26.38137298
  160      1       4.27947826       20.58604595       17.91932086
  161      1       5.53648771       16.35895071       18.46587361
  162      1       5.05411402        1.11962225       13.79285214
  163      1      27.45348573        7.07491003       14.33225882
  164      1      12.83748665       15.10436945        9.57870864
  165      1      19.61493923       22.98416443       27.13248725
  166      1       5.85273136       15.26133335       14.88793252
  167      1      11.06344011       18.63010447       17.92994719
  168      1      14.68531279       18.30081472        9.86233981
  169      1      26.60933710        7.24376032        3.02874771
  170      1      11.53052318       24.51570110        2.75101181
  171      1      20.63543143       15.34117967       12.06427630
  172      1       7.38692160       17.93236468        9.26699010
  173      1       1.75515083       14.47007656       21.28241370
  174      1      16.30512530        9.24023720        6.33055720
  175      1       2.24365373       21.13198201        3.70876802
  176      1      18.08914718       13.56262052        8.56216107
  177      1      25.76253341       23.31347779       22.58296718
  178      1      11.54260884       18.19832251        7.92917999
  179      1      25.55724651       18.06912534        4.05522304
  180      1       8.28200841       25.22303661       19.00699754
  181      1      22.65738878       21.01308018       18.74006888
  182      1      15.37706227       21.75616907        2.78785893
  183      1      21.06867448       26.89494613        2.89579887
  184      1      24.98402206        1.48539726       19.37457224
  185      1      21.90981807        8.33295028        6.16620251
  186      1       0.87149896       23.34592010       26.24506888
  187      1      12.59656648       18.44706432       22.55920477
  188      1      17.44441364       22.52029415       27.53375677
  189      1      14.90094887        5.57573161        6.09538777
  190      1      14.20099961       25.59464081       12.40469975
  191      1      10.81080830        3.08994434       22.01028806
  192      1      25.78255478       25.28096078       24.02231736
  193      1      21.79292352        1.00705330        1.59622286
  194      1      10.26390446        3.55479878       26.73997803
  195      1      18.06918613       24.74965390       17.51904982
  196      1      21.34495873       20.64226302       16.92808249
  197      1      16.46411543       25.42587185       12.35087614
  198      1       3.39501207       26.87828678       16.44088773
  199      1       1.21551119       18.07707635       10.20384040
  200      1       3.99422923       15.94279881       26.19405052
  201      1      16.02158291        5.80499101       19.41015472
  202      1      21.96544799       20.54060274       11.21782835
  203      1       3.75550555       24.85537419        3.49112910
  204      1      18.28598313        5.70407731       12.34348529
  205      1       9.14034896       10.59022275        1.86667163
  206      1      26.81496836        5.52114318       21.29967496
  207      1      26.27513255        7.92091296       18.31093216
  208      1      26.87700039        4.87114117       13.20166528
  209      1      12.93617152        8.99710881       25.11290510
  210      1       4.70635899        9.28321334       22.35556190
  211      1      24.82077240       22.20989442       26.73237621
  212      1       0.17783596       17.86066606        4.68722226
  213      1      23.21085020       16.67349770       20.94149852
  214      1      13.19951323       25.92550185       18.13948175
  215      1      14.16640100       15.29596185       21.18258743
  216      1      26.27613003       15.95493191        0.98986353
  217      1       4.87756195        3.18892815       26.42136485
  218      1       3.80362723       18.63630438        6.34809741
  219      1      20.48600249       10.72266067       23.78989470
  220      1       9.92121607       22.36744110       27.23536627
  221      1      11.40442023       26.01684938       25.48076653
  222      1       1.74148677       12.29909502       13.59946231
  223      1       9.78834268        8.86689494       16.12026530
  224      1      17.29902311        3.81275775       19.58059089
  225      1      16.56222945       11.40004147       12.93945851
  226      1      25.54833345       14.38532770        2.60565204
  227      1       6.15150435        5.97461065        0.13036481
  228      1      13.65451747       12.07796004       22.99451932
  229      1      26.74833263       20.19917433       21.61212488
  230      1       7.61676425        5.60446681       10.27541816
  231      1      22.43078027       19.84088049       13.50186722
  232      1       4.38876161       12.16167994        2.33443186
  233      1       1.15420317       19.02761751       21.63069087
  234      1      21.37619791       16.11147437       14.10417859
  235      1       1.79260093       27.04599308       18.22543087
  236      1      17.11930692       24.94227923       23.68979524
  237      1      20.16898619       25.07733925        0.08915361
  238      1      14.20310747        6.10189005       11.45124495
  239      1      22.25928588       25.21240828       17.92751785
  240      1      14.66811134        9.97580479       23.68475453
  241      1      19.52371605        7.84883983        5.41876670
  242      1       5.42966453       18.69294473       23.72857303
  243      1      24.85824560        2.75984609        0.91056756
  244      1      12.06237143       12.85145920        9.59564662
  245      1       6.87950562       24.96298662        7.53573501
  246      1      18.99677172        5.07900851        7.14442588
  247      1      12.16306840        3.65755100       15.84210110
  248      1      22.53298273        9.81936830       11.62493916
  249      1       1.41117399       18.83903937       16.10399896
  250      1      16.07835446       14.15835650       26.59427954
  251      1       3.00205345        1.14627476        3.76894136
  252      1       5.17358220       13.10713848        0.26211790
  253      1       5.75365118       23.46784882       21.52132946
  254      1      11.83330926        6.85551501       25.48037765
  255      1       0.99064602       15.75409297        5.22397682
  256      1      24.24762479        0.28135234        7.86905724
  257      1      24.63762781        5.17150213        7.77219367
  258      1      15.46493519       27.57584940        9.59271938
  259      1      23.39556801       18.13570643        1.42673195
  260      1      21.19798589       19.96413902       20.30189535
  261      1      25.56296764       16.68533975       24.54354006
  262      1      24.94852877        1.30549368       26.63439937
  263      1      19.95731692       16.85712247       24.07599241
  264      1      12.82559152       18.75362035        1.41589557
  265      1      17.46002597       21.18703031        6.16348686
  266      1       7.56054552       26.63456978       10.77509794
  267      1       9.37321789       24.98311174       21.05527530
  268      1       6.94848241       19.93893226        8.22131359
  269      1       5.42726977       21.50458898        9.34404734
  270      1      16.36081226        3.66537160        9.45246481
  271      1       4.91065975       10.92383908       11.65187604
  272      1      21.80042216       12.00585637       20.41861813
  273      1      15.99070492       21.49044495       11.70192591
  274      1       0.02618983        9.83047051        0.13037711
  275      1      22.24882094        3.79117684        5.48740453
  276      1      17.81034020        7.27446033       19.17314964
  277      1       4.89014242       17.15323387       21.96870148
  278      1       8.92145047       22.90131754       10.56485641
  279      1      20.26321883       24.80261933       16.37942957
  280      1       9.61223160        9.65079539        7.14899560
  281      1      26.78605993        0.84875784       22.31404260
  282      1       2.00207168        4.97402382        4.27335873
  283      1      20.92909580        1.23073682       26.01888588
  284      1       2.61067886        5.84278745       17.64764757
  285      1      22.79651136        7.69689973       14.83106441
  286      1      15.50759615       12.60847215       11.20524771
  287      1       4.38917778       14.69199838       24.25394422
  288      1       1.45828461       10.29624948       24.31366735
  289      1      21.45469603       25.39606088       21.61356428
  290      1      10.38996365       11.24052266       21.56381281
  291      1       4.09059778        4.08817692       16.61542124
  292      1       2.89638255       20.63208932       21.72611731
  293      1      23.58164561       25.81269069       27.11462405
  294      1      20.70202717        1.03813775       19.43715676
  295      1       0.12234386       14.07367542       23.01376742
  296      1      17.88939599       17.57222467       21.25554175
  297      1      14.28218861       15.03343908        0.24208559
  298      1       0.56404721        8.44186190       23.32369955
  299      1       4.79615167       27.08108207        0.59190090
  300      1      19.38036718       25.40106434        8.36206335
  301      1      14.63600267       14.66906158        2.49444059
  302      1       7.23974760       11.05332368       25.64050954
  303      1      17.22933451        4.39811047        1.58572935
  304      1      19.96863391        7.18040859       22.62855597
  305      1      16.82261149       23.90179669       15.61134959
  306      1       4.08579833        9.91393130        2.03878765
  307      1       1.53600732       20.30806618        9.48137093
  308      1       9.46921861        0.83658369        7.07319315
  309      1      24.90181606        1.07562671        5.79984397
  310      1      20.17371567       16.96872754       18.21289611
  311      1       0.96965459        3.00809293       27.62835442
  312      1       3.11947867       10.98225362       22.78269487
  313      1      23.82286231       22.17730575       22.98866957
  314      1       1.38214647        1.65071167       18.75346072
  315      1      14.89424177       27.49398992       17.58135844
  316      1      13.21825651       21.45870677        5.45077930
  317      1      25.63116189       18.97227061       11.95102061
  318      1      24.62349197       18.45701831        9.78842647
  319      1       4.25559567       24.74117388       12.37798805
  320      1       7.76555691       24.31678611       13.64117854
  321      1      12.53983147       17.65235353       24.85039506
  322      1       2.03733712        9.34116459        5.53469876
  323      1      20.30346371       13.00790610       12.27503771
  324      1       9.91788904        0.72297159       19.94640413
  325      1      23.95228862       22.64626226        7.98387909
  326      1       8.34736230       26.44584388       12.86698955
  327      1      23.44708474        5.99364156       11.52113466
  328      1      14.80279196        7.75266127        5.25430367
  329      1      21.66865393       22.35491335        7.59128687
  330      1      23.75700490       16.28776430       13.93810646
  331      1       3.78508895        5.17656471       12.55739472
  332      1      22.60479038       18.76432143       21.80148723
  333      1       0.68567639        3.79300978       21.90138296
  334      1      10.99724147        2.23532884       14.27302429
  335      1      26.21917243       21.19547095       11.81411312
  336      1      19.63610774       20.47552577       11.19440445
  337      1      24.85981784        5.20320600       22.60472877
  338      1      19.88319829        4.36125614       11.02072602
  339      1      19.06103551       19.68985176        7.11781507
  340      1       8.78722029       13.05911506       13.39289238
  341      1      11.43180579       11.06188320        1.92846346
  342      1      18.73770360       19.13105502       27.06796061
  343      1      26.90897828       15.85128110       15.41421628
  344      1       3.55366463       25.85779089       23.96659365
  345      1      10.11681113       21.99546326       19.15661716
  346      1      24.09287548       10.91722845        0.87026713
  347      1      13.47303975        5.14017871       25.08422005
  348      1      25.88590988        8.61975250       13.47465209
  349      1      26.24184330        9.58071272        6.93292508
  350      1      18.20872418        1.13265103        7.27474718
  351      1      26.80699319       22.92259338        3.30469522
  352      1       8.10993166        0.29774482       26.40287966
  353      1      12.93111150        2.32129349        8.26799493
  354      1      19.75034976        8.99599621       25.47576521
  355      1      16.10959129       14.90160562       24.34538972
  356      1      19.73904957       12.45049600       10.02464969
  357      1      18.20898787       13.27487102       19.19403000
  358      1      22.66843025       18.71574438       25.60334804
  359      1      25.83087625       25.28534312        9.96565974
  360      1      15.10684564        4.42174376        0.67656826
  361      1      12.36798646        3.05074039       25.69491641
  362      1      10.16064338       20.42484909        2.72559882
  363      1      26.12331985       24.74176386       12.12147944
  364      1      16.11926792        1.20863010        2.13369310
  365      1      19.00127262        0.79022002       17.81332437
  366      1       6.62092718        6.74819536       24.02179210
  367      1       6.66057431       15.70796374       21.69574238
  368      1       8.39993310       25.88475857       27.56362922
  369      1      15.57553173       20.09913691       18.03267515
  370      1      10.85933763       27.49712269       23.69516692
  371      1      26.95404067        3.74502201        1.47679383
  372      1      23.17008141        5.75005024       17.98503161
  373      1      14.32937322       12.63515053        3.51413530
  374      1      16.80557576       15.45349045        2.99818664
  375      1       6.22731404       14.49934696       19.71952935
  376      1      26.11546110       20.48774973        6.41478600
  377      1       9.04385807        8.36107924       19.78877557
  378      1       3.95208976        7.33358852       13.58322688
  379      1      27.04704633       12.80183662        9.50306384
  380      1      24.74602986       19.95011937       18.41744739
  381      1      12.72385076       22.29717867        9.48374651
  382      1      13.05497114       23.69998728       21.28474465
  383      1      23.92421005       10.49241860        9.80190822
  384      1      18.12191780       11.37065057       20.78247316
  385      1      14.31187877       20.61437634       16.09663813
  386      1       5.83181599       19.70424440        6.20566674
  387      1      27.06964171       19.76106456        0.82503513
  388      1       4.16227264       17.76354106       19.87026131
  389      1       1.06315282       10.92510200       17.33372906
  390      1      11.12038418       22.30341026        1.71871153
  391      1       1.60987186       17.62477132       23.50478136
  392      1       3.73695293       27.25403786        7.13979513
  393      1      26.44586800       21.52897175       15.35909813
  394      1       7.36962716        0.42577080       14.26546687
  395      1       4.54780584       27.17854151        3.04842569
  396      1       5.49898413        3.49417035       13.09255584
  397      1       5.62316441       15.33449865        7.30470700
  398      1       6.31808752        0.04273443       20.90465307
  399      1      27.08079098       17.85781647       16.57656846
  400      1       9.02113463       18.39926290       10.90503183
  401      1       7.88786485        1.27826659       10.23107884
  402      1       1.79417920        4.15325918       13.19057201
  403      1       5.67783234        3.31498772        4.07289248
  404      1       7.41062388        8.24748356       13.02866874
  405      1       1.04982572        7.46287420        8.67975052
  406      1       2.71927321        9.66811408       16.10096486
  407      1      25.27052749        2.21818042       10.43075661
  408      1      19.30203643       26.73111226       10.36076447
  409      1      18.39063664        2.68952684       10.48206861
  410      1       7.56249887        5.38065209       17.90041025
  411      1      18.32797903       17.18540398       25.81905236
  412      1      11.86282341       10.88320567       18.34897477
  413      1       6.17381773       25.19118825        0.23042119
  414      1      14.52426043       21.29950678       23.84899813
  415      1       3.08687806       15.62636514       12.24154694
  416      1      12.20625158       14.24047161       27.10935971
  417      1      21.61976398        1.52460646       10.68569243
  418      1      22.91337269        0.01062388       12.94541587
  419      1      10.68813668       26.41834377       12.68919386
  420      1       6.60401153       10.53302755       21.76319252
  421      1       0.61647070       12.42788742        4.11664409
  422      1       7.73655754        9.76468199        3.80587161
  423      1      19.92830891       23.25646001        8.95345015
  424      1      20.71167533        8.45411194       10.68419293
  425      1      22.40011254       24.33527656        0.76508287
  426      1      17.26219764       20.73639325       26.04503059
  427      1      12.76216504       18.45088092       11.18680877
  428      1       3.37056129       25.05165710       14.76258138
  429      1       5.83155460       12.98109346        4.02840696
  430      1       7.40010886       13.01498704       26.93938438
  431      1      24.48913683       22.82211896       14.82348483
  432      1      22.71372934       22.92408508       11.29545576
  433      1       3.57026402        3.31607357       24.39983065
  434      1       0.61786897       22.79881011       16.42182401
  435      1      21.08933363       25.78695700        6.71418732
  436      1       8.43299853       24.93390503        9.40438549
  437      1      15.98427661       23.79270461        8.83273274
  438      1      13.00989624       25.38715433        1.10284990
  439      1      20.73207984       13.11969105       16.68103290
  440      1       3.83375014        7.92612197       17.14794411
  441      1      17.23582717       25.18627670        7.43506588
  442      1      17.27302025       15.76798785        8.71989716
  443      1      10.10072120        5.08678096        0.85262258
  444      1      15.32694476       14.91853810       11.94955116
  445      1      11.01508528        9.07471399       12.57016778
  446      1       4.36933621       22.30546604        3.81895782
  447      1       4.93160517        7.02971529        6.03683912
  448      1      24.91233627       18.98464392       24.80056144
  449      1       6.46207066       27.35750672        4.39905003
  450      1       9.41339521       27.38681829       17.74296095
  451      1      27.54423707       26.70627679        4.05939265
  452      1      19.61405929        9.32550481        0.07813260
  453      1       1.95840784       22.87910600        0.55944176
  454      1       5.93543528       10.84104574       19.49770473
  455      1       0.56778172       21.63081223        2.01425565
  456      1      17.32743584       11.96109295       17.34825639
  457      1      11.18721242       24.28799873       13.72060297
  458      1       4.63175409       15.23240392        0.68222421
  459      1      22.03494988        3.98795377       12.17996229
  460      1      20.13821146        5.58618177       15.38690062
  461      1      19.79796815       12.85814616        1.86998018
  462      1       4.38397006       11.45658061       15.75045935
  463      1       5.29060566       27.52511018       24.48458646
  464      1      13.22126141       15.10492318       13.16437210
  465      1      23.17500885       22.78443892       25.11593115
  466      1      17.09460651        9.27960230       11.96806355
  467      1      24.59357636       20.20560971        4.64505965
  468      1      21.86871151        2.68355168       22.67509577
  469      1       7.76841064       16.40990695        7.51094156
  470      1       5.33938616        6.86132210        3.71777338
  471      1      25.63585616       11.66030611       25.05807608
  472      1      22.85760877        1.63909362        4.84850786
  473      1      22.50375326       11.99293992       15.41288642
  474      1      27.59384666       21.93197124       22.97990391
  475      1      11.45836930       21.27513658       25.88688560
  476      1      15.73179231        2.27439716       20.25723149
  477      1       7.74224929       11.43879128       18.13785687
  478      1      22.79728000       12.28959791       27.22112983
  479      1      11.82996403        1.31089179        4.53072613
  480      1      12.20102546        4.61764012        8.36990637
  481      1      22.35013091       19.70541375        5.14647608
  482      1      14.57140511       23.01505736       15.51990642
  483      1       6.72106242       14.43698717       23.61854018
  484      1      17.88075905       19.11558839        1.65130506
  485      1      18.68316780       14.94820786        1.72610691
  486      1      24.61439672       24.98040386        5.98957529
  487      1      19.43181898       22.12316713        3.00937490
  488      1      16.11568639        4.84092619       11.66333466
  489      1       9.29942836       17.14309407       16.83045345
  490      1      12.21068701       15.80096982       15.24207711
  491      1      11.93958731       20.34020478       16.45057134
  492      1      27.22445030       15.75173957       13.00499969
  493      1       3.16469504       22.95919937       15.72947907
  494      1      19.01589554       26.20999742        1.98341267
  495      1      17.90532370       22.75284589       18.67226565
  496      1       0.05083687       16.93170435        8.45123343
  497      1      23.54029096       25.15451709       24.89840172
  498      1      20.21609438       27.25873534       24.61114675
  499      1      24.65179768       15.46976291       15.89034079
  500      1      18.82130655       13.34484484        6.31515923
  501      1       6.38350945       21.99750794        2.39555901
  502      1      18.15849017       14.03314847       23.45215211
  503      1       1.60870035       19.40229475       13.63824884
  504      1      22.37078317        0.37611056       15.26442691
  505      1      17.89231920        5.39956890       14.73405624
  506      1      16.04715033       10.06090148       18.00270493
  507      1      22.04426871        6.74648296        9.73867089
  508      1      12.87784728        9.39335280        2.69590788
  509      1      13.79980047       27.58558414       13.57906882
  510      1       3.02548278       15.59487867        4.16672502
  511      1       2.50569431       16.43373039       16.14108309
  512      1       8.66880986        8.09084487       23.82780945
  513      1       7.92591948       16.84433539       26.23587409
  514      1      17.88457933       26.61086313       22.16442070
  515      1      12.69138698        4.78455713        6.09759288
  516      1      13.18372677       23.74486663        4.67460026
  517      1       7.10834569       20.18591919       22.98467809
  518      1       1.36852377       10.17088610       12.54008169
  519      1       9.97990744        5.52188810       18.06982703
  520      1      18.80388373       25.61164677       25.52759145
  521      1      23.17980454        1.98790262        9.04542116
  522      1       3.94475675        5.50867402       10.18393482
  523      1       3.12174060       15.91777353       22.68857727
  524      1       4.10577337       12.23349321       13.52531508
  525      1      16.34273645       17.26872295       24.61161719
  526      1       2.53167237       26.57152329        0.09570124
  527      1      12.89704775       25.99380992       20.59703839
  528      1      20.84056250       18.38461285       14.37491450
  529      1       3.92512950       21.82526107       27.17173784
  530      1       4.64483211        3.31104341        6.18338492
  531      1      14.80518497        8.23262109       12.21895841
  532      1       7.31157235        7.76244845       18.15324441
  533      1       6.47871494        3.32447108        7.58729889
  534      1       4.87969082        8.18843718       24.38596851
  535      1      14.26151319        3.46343479       16.82625051
  536      1       3.25087987        3.68960499        0.51006363
  537      1      23.74056989        6.77922366        3.09147587
  538      1      18.96827875       21.20198579       17.08653329
  539      1      20.48505252       23.08926369       14.60801813
  540      1      23.72590198        3.75255742       19.33913428
  541      1       1.21493688       23.83545861       20.12612507
  542      1      12.92589296       23.01529419       23.59496136
  543      1      13.40534643       23.60861709       13.42760909
  544      1       2.63379456       25.66906232       20.00132259
  545      1       3.00957257        1.57163606        6.12183817
  546      1      24.69795026       11.70167128       22.85620951
  547      1       7.97803960       18.92045067       19.89971674
  548      1      10.91214670       19.27808504        9.93328370
  549      1       4.68882222       22.19501084       24.86810825
  550      1       3.38840981       12.61301213        6.71923383
  551      1      23.85086318        2.38426452       12.65205420
  552      1      17.60487218        6.40331762        2.55412060
  553      1      18.54322531        3.14599242       17.73114105
  554      1      17.55364411        1.87179835       25.16900405
  555      1       6.78469022        3.23110059       22.24252690
  556      1      18.97888091        1.74287076       27.29150139
  557      1      17.76895287        7.96117937        0.81767276
  558      1      23.15138905       23.27560577       19.28343062
  559      1      22.74851782       25.36212206        2.75325961
  560      1       0.12531008        7.41541431       20.12219658
  561      1       7.72193614        4.75501625        1.44695935
  562      1       0.66988446       23.72819760       12.62383344
  563      1      20.28228161       16.66940803        2.13536958
  564      1       7.56115436       11.51351943       12.04657535
  565      1      26.80452172       24.26630584        6.72267974
  566      1      26.71743138       13.07710755       19.75176389
  567      1       0.82798278        2.11755993        7.13074715
  568      1      17.36133395        3.29088541        7.20991662
  569      1      27.31058428       24.95986381       16.02812274
  570      1      21.00323355       21.88105877       25.57036068
  571      1      13.39027890       15.21003400        5.95949906
  572      1      17.08725864       20.48708666       13.59474681
  573      1      25.51610591        0.29605279       17.42085783
  574      1       2.62144194       26.98648867       22.10293028
  575      1       8.91804855       18.81018333       25.50766701
  576      1       6.27027520       24.41982219        2.38841974
  577      1      13.11923578        7.47407075       17.74037645
  578      1      14.61017627       19.64828586       21.86393514
  579      1      15.70521246        8.53981065       21.97463610
  580      1      27.13924905       21.57725115        9.68546985
  581      1      21.26729169       18.70552730       23.71406919
  582      1      23.22520352       23.81916467        4.44809279
  583      1       6.68170763       21.07206007       20.76914616
  584      1      24.43348462       15.95767344       10.11014603
  585      1      20.64924249        6.89594040       24.87176699
  586      1      14.63091284        2.02515632        9.77894370
  587      1      25.86432289        5.79405241       11.16173756
  588      1      13.56010863        9.79957419       15.15209818
  589      1      17.20602208        4.78077952       22.97304835
  590      1      21.40012540       20.14669593        7.26420478
  591      1      18.68686364       16.83113114       12.07616725
  592      1       4.89945596       14.39277911       12.98471314
  593      1      11.02156472       14.75356063        3.06836816
  594      1      20.90219014       20.23741452        3.27244577
  595      1      17.76446897        0.13491599        0.75223944
  596      1      25.35176346       26.81180041        4.64019668
  597      1       0.20767805        4.96711038       17.51054649
  598      1       7.40538364        4.35434529       14.11465793
  599      1       8.90304659        4.42756849       25.08037286
  600      1       7.50656923       14.20635813        2.98921417
  601      1      11.74172416       15.90911187        7.74692536
  602      1      12.04617790        1.88778561       23.65667503
  603      1      17.56348775        4.25007082       25.21109273
  604      1      13.71429276        6.28706013        9.21737906
  605      1       3.56290577       12.22680652       26.50244252
  606      1      17.58634632        1.64774749       12.39249614
  607      1      27.20852458       17.11665893       18.87082054
  608      1      27.65504046       26.67294338       25.05767269
  609      1      16.24316813        6.83614483       15.77107559
  610      1      25.86447031       26.44714599       21.69721926
  611      1       4.49771596       12.71796942       19.41619107
  612      1      19.49763513        9.17165157       16.41436144
  613      1      25.41088365       23.30657820       20.12514718
  614      1      11.51643618       26.55868667        4.79140255
  615      1      18.00432405       10.44831409        9.97928599
  616      1       2.08485036       19.45195309       25.11584198
  617      1      13.65396761       26.15409838       10.19536362
  618      1       9.02217680       20.82618525        7.35079494
  619      1       1.96909387       19.93857455        7.17186837
  620      1      10.74782565       19.87414125       22.19074335
  621      1       6.89015272       22.81362637       16.95477665
  622      1      11.95407801        9.56964864        7.22556430
  623      1       5.79782191        0.91942863       26.67778117
  624      1      16.85847749       15.93022730       13.36189581
  625      1      15.20678818       11.41435657        7.16400641
  626      1      22.63739621        3.90518637        7.81094145
  627      1       5.82922671        4.24624274        9.61363885
  628      1      15.99287663       16.66644661       20.23360763
  629      1      10.67153835       22.03895101       23.40340635
  630      1      16.14785919       17.67730016        2.24642243
  631      1      20.61973837       13.57524712       19.09837120
  632      1      24.37991094        6.40820778        0.76474101
  633      1       0.91007442       14.66225515       16.67772963
  634      1       1.28765085        2.84846294       24.02785125
  635      1      18.26838714       22.11253424       14.99987602
  636      1      16.92494180       26.53033081       26.67196800
  637      1       5.68279399       17.65620673       25.98170103
  638      1       9.06719521        8.83791163        0.12885877
  639      1      23.53781692       22.15434542        1.09391102
  640      1      27.51210362        3.93758388       25.58587980
  641      1      11.00827936        1.21159919        8.92605962
  642      1       9.13467915       15.10534499        4.43604405
  643      1       4.63670791       20.11349638       20.14101534
  644      1       1.35495530        2.68322625       11.16277232
  645      1      14.52218157       27.11869897       21.89573074
  646      1      19.32020348       13.73402494       25.54440980
  647      1      21.33644831       15.74398870       27.46376476
  648      1      12.32127917       15.23819428       24.86530652
  649      1      21.53843858       18.27002285       16.74609972
  650      1      20.10994481        6.55359225       19.08179476
  651      1      26.91126922        9.65877378       11.70305807
  652      1       5.22974484       14.02427483        9.27160370
  653      1      25.30568714       12.03494924       18.19357696
  654      1       8.06800475       20.89128750        3.62096141
  655      1       2.02879447       12.79220254        2.27170346
  656      1      11.86024114       13.05229339        5.94335316
  657      1       6.64902221       16.05529336        1.80371824
  658      1      26.22045484       20.36600309       26.28395210
  659      1       7.89024448       22.66572968       19.06384347
  660      1      16.24587199        7.57643373       26.69291897
  661      1      19.38485007       18.46434809        3.34030485
  662      1       0.94866702       16.24118203        0.73753082
  663      1       1.16630119       25.34977518       14.20730638
  664      1      17.12568557        9.81640719        2.43140121
  665      1      15.00021925       14.54802483       17.59472338
  666      1      11.98415724       12.63873999        3.58979275
  667      1      13.06822549       19.81755009       13.00692542
  668      1      21.15564202        9.09597043       22.10221397
  669      1      20.73387345        4.98007675        8.85712908
  670      1      24.08007780        7.55419267       19.20583407
  671      1       8.48811459       11.71760807        6.83765747
  672      1       7.56722816       13.62356204       15.28397992
  673      1      16.38149557       27.31637253        7.48773414
  674      1       1.55470161       12.82364118       10.24303780
  675      1      25.68618018       11.54707981       10.92801704
  676      1       8.21957086        4.80858601        7.07285893
  677      1      20.41373889        4.74758368       17.60022367
  678      1      10.43547391       18.62004657        0.94771451
  679      1       1.95720966       22.76406928       22.06898042
  680      1       3.38616223        2.45659308       19.76052498
  681      1      12.62957409        8.67901793        5.06712328
  682      1      19.94170494        2.00205775       21.59973199
  683      1      15.32236224       23.84921381        3.77999590
  684      1      23.30183161        9.74598139       15.91229766
  685      1       2.30345029        8.82338451        3.19998522
  686      1      22.44481313       10.16843914        2.59373188
  687      1       4.23698835       12.30745769       24.29219079
  688      1      20.72345359       26.30385127       12.37224513
  689      1       5.28390518        8.60193199       18.87244560
  690      1      16.92642266       15.40552107       18.51930448
  691      1      20.94781140       10.23974337        7.22995274
  692      1      15.60958976        5.31502852       26.22288236
  693      1      18.96690651       17.77735157        5.74590660
  694      1       1.91703229       25.51317650       25.69180355
  695      1      21.35466246        6.54489121        2.17350128
  696      1      23.54434772        8.17793667       27.13900748
  697      1      19.00817052        0.69757774        5.14201977
  698      1      20.96997299       11.78275936        3.66563164
  699      1      23.50400515        8.32102010       21.63846272
  700      1      21.13593015       27.59984947        5.12638454
  701      1      25.04646003        8.74226855        8.74341605
  702      1      10.74208011       23.11098403       21.06134988
  703      1      10.51066030        6.73967439       12.08505593
  704      1      22.31096143       21.66141122       15.02181645
  705      1      19.27940768       15.83256220       22.04714149
  706      1       0.23208224        3.11916582        3.59323093
  707      1      10.79462882       26.76113328       21.40858692
  708      1      15.11911292       19.35255568       14.34696777
  709      1      16.44224278       27.61034407       20.61762609
  710      1      23.33825662        4.49250320       25.61330369
  711      1      14.51707559       17.39849942        0.43280428
  712      1       8.71325293        0.55943956       24.12717793
  713      1       5.45741039       17.70360732       14.59262754
  714      1       2.44714208        6.49178529       19.91920432
  715      1      16.30177888       20.09043466        9.84021967
  716      1      10.18002025       19.02995009        6.26636745
  717      1       1.34007604       27.52549762       13.40239193
  718      1      11.32180764       10.71260041       25.46909563
  719      1      25.42310568       19.42730647       16.05890086
  720      1       2.00575052       20.01327723       18.03274177
  721      1      19.12860732        2.63766177        3.81126636
  722      1       3.72924173       10.09027790       27.35365408
  723      1      24.02536500        4.81110486        4.30390046
  724      1      12.27744061       11.83703550       27.40831772
  725      1      10.09371285       13.38169278       20.26157981
  726      1      23.32816056        8.83868160        4.30558215
  727      1      13.69112724        1.95283200        5.98588789
  728      1      23.41747376        7.29114401        7.92783614
  729      1       0.14542512       16.04336235       24.36256540
  730      1      26.70904365        2.69051399        5.63241898
  731      1       0.43250752       21.21065981       25.14111086
  732      1      26.30225249        4.41479704       19.30764730
  733      1       7.25070201       17.93485701       17.85440268
  734      1       1.47128608       11.55362952        6.01018489
  735      1      19.22349217        2.14691879       14.21850370
  736      1       7.72629113        1.85108412       20.40942306
  737      1      20.92835325       14.32556650        6.46608218
  738      1      12.81175268       11.67998659        7.58711123
  739      1      13.79040688       18.71735897        7.79071233
  740      1      23.18367774       14.48759827        2.86387859
  741      1      19.15049050       11.48606992       15.97099920
  742      1       8.24744363       13.61849210       18.82392389
  743      1      22.94580211        6.81475396       25.25618874
  744      1       7.07314714       21.80978696       24.67364093
  745      1       3.34110734       21.33648790       10.64557328
  746      1       0.98399616        0.50545483       23.50518144
  747      1       6.05560013        8.73462779        2.51262070
  748      1       5.71657365       17.28693888       10.79065794
  749      1       9.99514304       26.22801571        6.54972189
  750      1      18.47437312       19.40899325        9.41087544
  751      1       9.22412930        1.73872857        0.08032514
  752      1      22.66851135        2.63325362       15.75891645
  753      1       3.78938541       20.28550257       23.85147226
  754      1      15.72579784        3.38854966        5.45701648
  755      1       7.11850184       18.87717204        4.40283205
  756      1      23.15536209       17.00602808       27.12226614
  757      1       3.78505020       20.22601398       12.71287870
  758      1      25.63823300        9.62569827       26.45658337
  759      1       8.79600831        8.94312774        9.40423559
  760      1       0.10262159       17.97815436       12.26796612
  761      1       3.15645340       17.18984033       13.97302943
  762      1      11.04068015       19.66576547       14.38987948
  763      1       7.43004782        1.66613005        3.66308649
  764      1       2.60402139       15.03508541        1.96099665
  765      1       3.73493310       17.75615132        4.12550607
  766      1      19.17624556       18.70710823       19.58505536
  767      1      14.60159520       18.12149707       25.87328889
  768      1      18.62198404       23.03212368       20.89099618
  769      1      17.07481905       16.49641546        6.52424617
  770      1      20.71667304        8.83903227       18.43507581
  771      1      24.40796363       13.15277598       16.26563648
  772      1       8.70711722       23.40179856       24.15879313
  773      1      14.02995366        1.92716130       18.63988684
  774      1      20.13530026        2.72291844        1.56358972
  775      1      10.45893688        7.19294118        9.75316278
  776      1      20.62036398        5.56715672       21.13732779
  777      1      15.60282936        2.88680887       12.91574763
  778      1      13.26922784       11.82387381       11.27181884
  779      1      19.43400241        9.08366747        8.75142005
  780      1       7.41882736       26.91691645       16.24715051
  781      1       4.79141572        7.67397083       10.02493085
  782      1      24.51833899       26.82188345        2.50717885
  783      1       3.64182909        5.99365678        0.49315207
  784      1       3.73172475        5.13366921       22.98790633
  785      1      13.66964507       23.58923677       17.65628241
  786      1       7.18737520        6.90885590        6.80294477
  787      1       9.65793247       13.62238717        6.21080278
  788      1       4.97281053        1.94124708       23.26443500
  789      1      27.26131768        2.16289474       20.27910342
  790      1      22.08489307       15.37594513       10.03624788
  791      1      21.50466501       13.48579295        8.66489357
  792      1       6.51095344       12.01449976       23.63112745
  793      1      23.95718864       12.19968692        6.05006639
  794      1       6.13963284       26.18287255       19.22032812
  795      1      27.48244988       25.05488801        2.43288731
  796      1      25.01847387       15.17405275       12.28545879
  797      1      25.74214186       13.65270958       21.93178946
  798      1      15.15641476       25.42471106        2.15285539
  799      1       4.51225163       14.24461206        5.42467650
  800      1      10.11260782        6.22882767       24.04574279
  801      1      10.68130392        7.51540172        4.37868012
  802      1      26.46166162        6.49726957       16.41390578
  803      1      20.10255664       20.80377253       23.65676764
  804      1       9.49807407       22.93640455       12.91193843
  805      1      21.15432193       23.62100315        5.73059459
  806      1       1.83375215        9.23005398       26.48342531
  807      1      10.74613591        3.40542290       17.70869612
  808      1      21.08079835        3.69872638       14.31472561
  809      1      21.07032372       19.95370880       26.92513715
  810      1      27.56203418        6.26467445        4.95588361
  811      1       8.53782731       17.03791735       21.51223866
  812      1      15.86590956        5.97483438        8.22524489
  813      1      16.52430537       11.82962862       26.79365672
  814      1       8.34006631       14.69958925       25.27271338
  815      1       7.61908214       24.68512320       22.52889743
  816      1      26.43348228        7.87835664       24.83887084
  817      1      14.52927564       10.97459169        0.07279604
  818      1      11.65534614        3.03730436       12.17174893
  819      1      10.86638191       12.37994050       14.46415082
  820      1       1.67958392       18.20927321       19.55447954
  821      1      13.78770780       21.06642590        7.69326388
  822      1       0.76638598       11.33017001       19.85215904
  823      1       0.73716681        3.61171165        9.01022279
  824      1      10.26991333       14.71694376        0.86748309
  825      1      27.33465333       23.86275297        8.95063998
  826      1       6.16582987        5.21606009       15.95230423
  827      1       0.86784342        0.90269764        2.97760077
  828      1       5.90617039        5.62864403       22.08676304
  829      1       8.82006295        9.60752565       11.75730990
  830      1      26.64485636       10.91100591        3.45713973
  831      1      19.58972229       11.24909623        5.50257744
  832      1       2.19866771        5.38600310        8.53068469
  833      1      15.47616920        0.04889976       15.26717555
  834      1       4.15307435        0.92838964       21.36379832
  835      1      25.87505625       12.25742258        1.69426404
  836      1       8.36910618       24.62999930        5.71648854
  837      1       2.67242031        4.44512656       21.00784069
  838      1       8.04892699       24.59151470       15.91066306
  839      1      22.04056564       26.72904644       19.76913747
  840      1      22.27457852       23.20434391       21.46546736
  841      1      10.32943611       15.37697781       21.61176122
  842      1       5.24578480       18.82373584        0.40580690
  843      1      12.28296093       10.18665391       20.47225899
  844      1      24.99394926       15.64207350       26.60360497
  845      1      13.32195572       24.82342465       24.94225914
  846      1       2.20699036        0.49861395       11.20357043
  847      1      24.34770801       15.50236327       22.74553819
  848      1       5.88853761       23.19526370       12.80352323
  849      1      19.14626835        7.95064494       12.47486746
  850      1      17.48340882       21.40466337        1.89232854
  851      1      15.65371771        2.43656754       15.23037142
  852      1      16.71714873       10.69256471       24.65330422
  853      1      15.14958207       13.33279020        5.65521603
  854      1      11.67572172        2.34884063       19.62355439
  855      1      11.47002529       22.56487977       17.29231754
  856      1       1.91003181        8.46741078       14.13699409
  857      1      23.23698725        0.82136935       22.83717710
  858      1       6.87352311       21.04427174       15.42010329
  859      1       9.01819707        4.33488043        5.00022813
  860      1      10.47614572       24.36874479       15.98229455
  861      1       3.33582402        5.23229366        6.36208669
  862      1      14.27050403        1.50431416       23.20781731
  863      1      20.22332445       10.23962171       20.29055063
  864      1      18.54623357       12.38654581       13.78545952
  865      1      27.24022983       26.34225039       17.88972799
  866      1       6.79804770        8.18251509        0.32395586
  867      1      11.04604260        5.27969930        4.51065023
  868      1      22.78572747        0.36988305       27.18308536
  869      1      23.63297292       17.09762318       17.25695983
  870      1      20.99062905        4.72479759        0.60508933
  871      1       5.24981595        8.59645162       12.11543795
  872      1      25.03301545       10.06144808       21.29009577
  873      1      13.93922733       16.41421025       16.68004008
  874      1       3.40602251       17.02577794       10.19471416
  875      1       4.42108096       15.24064144       16.73377862
  876      1      21.84437396       13.78473847        0.99217064
  877      1       2.96468541        0.83536005       14.81860047
  878      1       3.13564472        6.59224450        2.80969085
  879      1      26.08507625       27.61519817        9.29320343
  880      1       6.78464821       11.31415262       15.97056361
  881      1      15.07810454       18.46026380        4.22297460
  882      1      22.96463784        9.28225274       18.17067754
  883      1      13.78362857        5.85692435        1.96528715
  884      1       5.25080515       26.27655557       10.84387376
  885      1       2.74556663        7.04763446       24.07056705
  886      1       0.34861949       27.62852101        7.89365840
  887      1       1.91126192       24.52175463        9.17089368
  888      1      18.81010340       17.17054430        9.76390000
  889      1      22.46996109       16.66801700        3.02891857
  890      1       1.52431176       15.51717362       26.28143012
  891      1      12.29539659       16.63143759       21.01588034
  892      1      13.62498907       21.85317080       11.83052153
  893      1      25.94540914       25.78634021        0.59271045
  894      1      12.19348717       27.19894507       27.41655507
  895      1       2.84904969       13.81598277        8.64427068
  896      1      19.46334668       26.25057794       14.52563453
  897      1       2.96511456        8.83046200        9.06220363
  898      1      22.84854152        4.44229117       21.44134492
  899      1      25.17190342       26.56170049       13.36607374
  900      1      17.53445265        7.24829396       22.94063597
  901      1      19.22898266       22.81193408       11.11138763
  902      1      17.10309535       25.95191924       14.49553790
  903      1      26.68842475        6.00136800        0.92626386
  904      1      17.78185079       14.36402103       14.79101639
  905      1      14.23854644        8.77685038       27.03789194
  906      1      17.13933999       26.92420700       18.37715474
  907      1      23.96000166       27.61932971       20.77781351
  908      1       0.62403902        2.79964946       16.74527382
  909      1      11.31976845       26.48038318       16.65593713
  910      1       9.62413970       26.09749357        2.11127666
  911      1      26.76372289        7.82251389       10.14769699
  912      1       6.02082286        2.47209499       10.94377845
  913      1      20.40215308        7.82169134       14.65584045
  914      1      22.11620470       26.51468947       23.55952869
  915      1       6.70734412       11.29365246        5.36884212
  916      1      24.55728825       22.19600036        3.26651947
  917      1      22.20918559       20.19289289        1.29659976
  918      1      26.52207945       10.07983688       17.36608871
  919      1       5.36505558        7.34360527       15.49561057
  920      1      11.31142727       12.10682898       23.54635980
  921      1       8.92992919       20.86384405       13.96897184
  922      1      13.57010312        5.24443392       22.62428876
  923      1      17.51982620        8.52313171       24.95853450
  924      1      17.27218804       24.53362680        5.15527725
  925      1      26.11726276       14.99475241        8.66660531
  926      1       5.73994156       18.79852880       12.55697167
  927      1      11.66091436       27.64049486       14.48979705
  928      1      16.43898973       12.02598236        9.09629569
  929      1      13.65680609        1.29214939       26.75149366
  930      1      17.76346449       19.29106737       17.70101561
  931      1      19.61770866        1.10865687        9.32699624
  932      1       3.52561066       13.09286485       17.26443031
  933      1      20.00487839        4.42566126        5.04619164
  934      1       2.20441504       26.88858833        9.10116135
  935      1      20.99898356       15.71921936       20.17167921
  936      1      15.42777685        7.32992341        3.10544581
  937      1      14.87960967       10.64364493        2.35583169
  938      1      22.40787096       11.95406062       12.95976451
  939      1      14.72972848       11.77477349       14.47500544
  940      1       8.14633991       22.21310842        5.59469370
  941      1      15.79127008       17.21223046       15.20049001
  942      1       5.71248221       21.98473775        5.77677305
  943      1      12.62933686        7.79086404       19.98455451
  944      1      12.21639993        2.16195583        2.36633745
  945      1      26.08989002        4.23847730        9.45466424
  946      1      15.44431293        0.56678581       25.31035964
  947      1      12.48480998        8.30347418        9.20221901
  948      1      15.56709082       22.31575713       18.76713853
  949      1      21.41010759        3.29309117       24.93918437
  950      1      25.27489998       20.71203912        8.54147289
  951      1      10.40409621       21.55804575        9.27560576
  952      1       8.69102112        9.49282786       21.82666741
  953      1      17.99821361        7.48922313        7.47386989
  954      1       9.96009145        2.73729152       10.35494959
  955      1      23.68132699        8.02635897       12.75852796
  956      1      21.04131219       15.16873293       25.18729282
  957      1      13.48860756       21.72419885       27.03076292
  958      1      13.62162688       24.43972480        8.61999711
  959      1      15.17497910       15.98018422        9.85345667
  960      1       9.62527804       13.49769876        9.83139308
  961      1      21.04499689       17.11082730        8.91317722
  962      1      26.91645132        2.37131283       12.22726021
  963      1       6.08616585       27.11492642        6.83629461
  964      1       8.65294712       14.67105579       11.68526309
  965      1       8.02536248       20.88854269       26.58302366
  966      1       7.38677770        8.90765178       15.46139254
  967      1      18.34223156       11.28463269        0.76374408
  968      1       4.53439537        7.48695965       20.75298909
  969      1      11.76786584       13.19931970       18.55928138
  970      1      26.36727155       21.25410888       19.54358301
  971      1       0.33767239        8.05568562        6.48643140
  972      1      18.32812367       11.67705065       23.11991723
  973      1       4.62046885       22.94031684       17.63971987
  974      1      11.24027346       10.03731588       14.68524845
  975      1      25.13634515        1.52632995       24.03817106
  976      1      20.85599229       23.91679489       12.41972648
  977      1      25.91137166       12.29628728       14.72192393
  978      1      17.16720882       27.24556601       11.18847017
  979      1       0.96975587        0.69689551        0.59401892
  980      1      14.17555884       11.60122399       20.74486352
  981      1      23.20066427       25.89942415        7.67586242
  982      1      15.17700504        3.47758335       22.27692090
  983      1      24.23282302       13.46213287       25.84201138
  984      1      12.86634260       17.42181068       18.71005037
  985      1      25.82011794        4.84565070        5.76675195
  986      1      14.85359327        5.77349852       17.38705850
  987      1      11.56075404       19.88318646        4.58727631
  988      1       3.56537942        3.26300346        2.90672664
  989      1       8.62148519       17.35080347        5.46607409
  990      1      25.79147437       13.59609696        6.52286402
  991      1       3.97542466       23.67268638       23.14803485
  992      1      17.69776074       16.95642660       16.80810866
  993      1      13.28042242       25.52270139        6.29576044
  994      1      22.34374623       13.32896862        4.75858467
  995      1      24.36311604       18.60666025       13.92017587
  996      1      19.25881550       25.27566319       20.90806116
  997      1      12.24500752        5.31716341       12.55971373
  998      1      14.28300254        2.21331541        1.09560529
  999      1      18.03120638        9.66449626        4.72491156
