run_id:  1012
total_energy:   -3029.276022550283
  1000 atoms
  1 atom types
  0.0   27.664  xlo xhi
  0.0   27.664  ylo yhi
  0.0   27.664  zlo zhi

 Atoms

    0      1       0.03691742       18.73701043        6.76669737
    1      1      14.70514076       18.60839905       19.59378094
    2      1      19.84823586       15.23965779       15.86675006
    3      1      17.39079584        8.35758186       17.15772853
    4      1      12.87888822       12.81504102       13.33582056
    5      1       8.83558879       16.66153581        0.72131990
    6      1      13.87688856       23.99935290       26.97844648
    7      1      24.73634393       22.86740395       12.52293220
    8      1       0.67464265       25.99740388        6.16526560
    9      1      26.76377901       27.55830546       27.07029257
   10      1      26.26818459       24.04530047       26.53509052
   11      1      24.72785709       12.82613230       12.64715457
   12      1      12.02774308       16.23635914       11.52072946
   13      1       8.76673709        2.82947693       23.39790481
   14      1      22.30393772       12.22748848       22.82773854
   15      1      16.03711000       21.61277613        8.00244345
   16      1      22.73529613       17.42419341        5.21518261
   17      1       5.63386330        9.38538379       26.31495953
   18      1      25.00875149       10.27359588        5.07693683
   19      1       8.64184534       12.92981153        1.24889714
   20      1      25.64868188       18.08649436        1.78077001
   21      1       2.99030983       23.62020625        7.22894975
   22      1       4.98185571        2.30082246       17.98262083
   23      1      10.40598493       14.38073467       23.84646598
   24      1       0.40261819       14.89454768       19.06283620
   25      1      27.41992665        9.47954648       21.19749769
   26      1      12.91565212       18.21798371        3.58274179
   27      1      22.34377989       19.09695551        9.29128369
   28      1      17.71394487        3.24938923       15.56728426
   29      1      27.31401618       22.36794827        5.61704897
   30      1       4.80768859       21.73453897       14.26647523
   31      1      16.70148136       18.84630025       22.83761794
   32      1      16.97853897        2.94739666        3.35502420
   33      1       9.80852634       16.62682484       12.27433758
   34      1       8.23025168        6.07268556       12.55431899
   35      1      15.76656958       27.20627082        3.58684365
   36      1      10.62804817        6.58997961       20.12265697
   37      1       7.06177098       26.92192707       23.03121204
   38      1      21.87389617        2.75376722       18.07854125
   39      1      10.72396738        0.53823544        1.29915893
   40      1      10.81294943        7.15222146        0.00496095
   41      1      10.63042286       25.33505287        8.65966291
   42      1       4.49330263        0.64456777       11.52938009
   43      1       8.93236816       18.79114030       23.14353930
   44      1       1.35613150       13.15189668       26.41766906
   45      1      23.72505392       11.01030087       19.48359722
   46      1      14.35975821        7.66451040       14.48374601
   47      1       6.60831443        4.99777118       25.71295570
   48      1      14.99691658       20.39380735       25.90338836
   49      1       9.77491100        4.82646479        8.98363895
   50      1       1.39865874       18.50748363        1.07167913
   51      1       7.36898804        2.40313274        1.30467702
   52      1      24.52521882       19.93955940       22.69228855
   53      1       0.17300423       21.44832933       13.44701408
   54      1       6.88597337       21.88857836       11.07977206
   55      1       4.66037955       24.46073834       19.60179382
   56      1       1.89402557       18.81982317        3.35426829
   57      1       5.75099327       11.74405406        9.29653747
   58      1      27.18253730       11.72231869        7.35939730
   59      1      23.26814954        4.49924880        0.03959250
   60      1       2.39360408        3.03788474       15.27139750
   61      1      18.79016578        0.73475713       23.30399797
   62      1       8.11778974       11.69709561        9.27834661
   63      1       5.42279836       27.55356865       17.41010729
   64      1      20.46893657       21.78114147       21.55912966
   65      1       7.08341399        5.12129070        3.63624061
   66      1      15.98812658       13.22255372       15.96651345
   67      1      24.44182814        7.25252112       23.51424445
   68      1       0.19632427       12.27910057       24.60472535
   69      1       7.16317083        2.97699886       18.45424082
   70      1      10.41774278       17.35470671       14.59678147
   71      1      13.73941248        9.71401030       17.36759359
   72      1      13.31359156       21.12610500        1.53719380
   73      1      24.85922444        3.52032034       14.77607469
   74      1      26.34635399        1.83169956       15.79230013
   75      1       2.67682293       10.67175416       10.63760523
   76      1       2.59729759       23.52619130       11.21226470
   77      1       7.74152655       19.94303195       12.15705474
   78      1       3.86229237       16.82939893        7.78728154
   79      1      23.71080249       26.57671066       16.60806423
   80      1       6.99722036        7.51932066        9.04904465
   81      1      18.79939737        4.01443396       21.35876007
   82      1      11.04656364       18.98696021       26.23359302
   83      1      14.76720885       27.42598788        5.79686850
   84      1       0.73680556       21.96308933       18.58869429
   85      1       5.66739104       17.97868128        2.74977137
   86      1      26.84765433       25.13989696       19.93126780
   87      1       9.60163009       14.97261261        8.00278554
   88      1      25.24395360        3.82353851       24.42909812
   89      1      24.21674674        5.80333789       15.85284920
   90      1      11.77733089        4.50727757        2.43539467
   91      1       0.55626229       12.56259197       15.62941996
   92      1      19.99702157        0.46214397       15.61008875
   93      1      16.10583041       10.26086987       20.35100804
   94      1      22.83495376       14.21904532       24.05947502
   95      1      17.75718114       20.83163080       23.70664897
   96      1      10.14019260       19.78425598       19.78716596
   97      1      12.97689751        9.46727205       11.25477734
   98      1      25.51498515       10.07361843       15.26644310
   99      1      27.51575016        6.17949940       26.32162545
  100      1      22.76154568       11.60104228        8.02233132
  101      1      15.03865366       26.04908957       23.98680972
  102      1       9.00075652       14.69074490       16.85420442
  103      1      18.94330677       22.90695012        5.01085594
  104      1      17.92688359       26.52418718        4.08206916
  105      1       2.93543164       25.43993288        5.81920851
  106      1       9.69182927       10.01376577       18.14798657
  107      1      11.19387000        5.35316287       22.13311284
  108      1      23.88173693        1.47333663        2.69608175
  109      1      16.05860836       24.53466727       27.64924397
  110      1      13.87383753       13.63613706       19.49390712
  111      1       1.79292808       15.68711777        7.48156305
  112      1      11.09161364        6.91667218       16.52584346
  113      1      12.87008982        7.75983776        0.99271116
  114      1      23.73749156       24.37778035        9.52683372
  115      1      17.10962528       14.59004320        5.22551128
  116      1      19.80879209        4.91007841       25.90335584
  117      1       8.66186320        2.36808524       14.72784345
  118      1      18.94274080       19.03832787       12.96903007
  119      1       8.88974943        2.11464442       17.06448644
  120      1      12.54785798        5.88483335       14.81845392
  121      1      18.14221662       15.16091370       27.07495172
  122      1      26.95854932       14.22548398        4.58901131
  123      1       5.83758196       19.22684403       16.48532663
  124      1      14.46587525        6.80057517       21.04698798
  125      1       2.63684137       12.33627195       20.88383530
  126      1      19.68255388        6.29901356        3.72098602
  127      1      11.13225411       13.93017820       16.30934925
  128      1      20.91771473       16.66684320        6.54767991
  129      1      14.96937690       22.22686216       20.93654031
  130      1       5.05194746       10.99283277        7.08610857
  131      1      14.90033636       17.25881965        6.19866278
  132      1      25.03824954       25.13273919       15.29987369
  133      1      16.88434028       22.75446485       22.47035495
  134      1       5.23641008       23.17705692        7.67960029
  135      1       6.07553648       20.99559661        0.34201132
  136      1       9.51143654        2.00939529        4.97671147
  137      1       3.02396952       19.46471762       27.33282110
  138      1       6.29986124       15.00835592       11.20071596
  139      1      12.93837966       15.87611052        3.72144121
  140      1       9.60275760       24.49189114       26.11196836
  141      1      26.82821639        0.62177166       13.80319288
  142      1       9.15810430        9.69109943       25.61017707
  143      1       3.88259950        8.99576365        6.87750143
  144      1      16.96560768       23.49938808       11.03518466
  145      1      21.62922657        8.59617077        1.01414700
  146      1       1.84251675       21.85887324        5.97800342
  147      1      11.43456967       26.89491578       10.26581923
  148      1      13.74604311        1.83708329       11.98810980
  149      1       7.36337325        1.16337466        7.92378361
  150      1       0.39572405       12.12170758        0.60375486
  151      1       0.06819717        9.04934037        2.37614727
  152      1      15.46017959       20.64152130        4.73421901
  153      1       7.79579952       25.62508401        3.65505531
  154      1      14.08933069       14.39392513       23.39044756
  155      1      24.78388995       17.63067113       19.27095093
  156      1       2.08029082       24.92828733        1.72333911
  157      1       8.72830856        8.28608504        5.45376798
  158      1       1.28384514       14.16490402       12.23822403
  159      1       2.10705968        6.87399404       26.39022200
  160      1       4.27619603       20.58237919       17.92595199
  161      1       5.53151169       16.35802387       18.47126222
  162      1       5.06059308        1.11982405       13.80486629
  163      1      27.45560399        7.08059812       14.34222102
  164      1      12.84422600       15.10317808        9.56928495
  165      1      19.44581961       23.59870132       26.70937329
  166      1       5.85432543       15.25539078       14.89120201
  167      1      11.05915890       18.62838990       17.92406581
  168      1      14.69376120       18.30385523        9.84570946
  169      1      26.65502416        7.06155187        2.96319907
  170      1      11.51175513       24.53747632        2.76384813
  171      1      20.63616549       15.34147461       12.05495197
  172      1       7.39457255       17.92236051        9.26465944
  173      1       1.74909946       14.47060687       21.28827923
  174      1      16.32053532        9.22979837        6.32097754
  175      1       2.25810090       21.11815273        3.71635076
  176      1      18.09346046       13.56176536        8.54948409
  177      1      25.74395194       23.32275336       22.60471663
  178      1      11.55373442       18.19867262        7.91770657
  179      1      25.56384694       18.06039365        4.06221889
  180      1       8.27491556       25.22086123       19.00731345
  181      1      22.65004304       21.00917844       18.74510477
  182      1      15.41003113       21.77323180        2.73908384
  183      1      21.17822513       26.94221327        2.90657273
  184      1      24.97023084        1.47652947       19.38549485
  185      1      21.92350139        8.32035585        6.15724407
  186      1       0.85457225       23.36711490       26.26535721
  187      1      12.59181729       18.44721458       22.55380089
  188      1      17.46772044       22.60750741       27.39679298
  189      1      14.92071925        5.56181321        6.07955206
  190      1      14.20348882       25.59255583       12.38620143
  191      1      10.80302511        3.08972095       22.00925058
  192      1      25.75993064       25.26843579       24.08722134
  193      1      21.90746955        1.07703993        1.60613544
  194      1      10.26234514        3.55305915       26.73776185
  195      1      18.06061485       24.74712779       17.50443331
  196      1      21.34120934       20.63744916       16.92917614
  197      1      16.46673692       25.42409457       12.33475029
  198      1       3.39652716       26.87266007       16.45562629
  199      1       1.22210069       18.06092948       10.21100279
  200      1       3.98768933       15.93690943       26.19918263
  201      1      16.01461125        5.80481718       19.40302783
  202      1      21.96870058       20.53391277       11.21690087
  203      1       3.75797462       24.86113135        3.49387974
  204      1      18.29019782        5.70051164       12.33103863
  205      1       9.14561306       10.58357893        1.86943582
  206      1      26.80461076        5.51479845       21.28476327
  207      1      26.26858525        7.92316101       18.31101685
  208      1      26.88025983        4.87264215       13.22431091
  209      1      12.93486273        8.99548311       25.11474004
  210      1       4.69740595        9.27685437       22.36026617
  211      1      24.80902430       22.21024133       26.75865641
  212      1       0.18327747       17.84534435        4.69292653
  213      1      23.20251689       16.69566898       20.95621541
  214      1      13.19153959       25.92349771       18.12732851
  215      1      14.16490128       15.29709089       21.17930531
  216      1      26.26768493       15.95476869        0.98990454
  217      1       4.84089452        3.20513891       26.42425370
  218      1       3.81549382       18.62050435        6.34787527
  219      1      20.47790793       10.72917377       23.78181516
  220      1       9.91167670       22.37007869       27.23687916
  221      1      11.38217164       26.01769426       25.47588567
  222      1       1.74414901       12.29682642       13.60090126
  223      1       9.78782380        8.86766753       16.11864866
  224      1      17.28599508        3.80907701       19.57227475
  225      1      16.56433299       11.39790168       12.93003569
  226      1      25.54756896       14.37083444        2.59925733
  227      1       6.15134054        5.97115481        0.13557488
  228      1      13.65159277       12.08142505       22.99314921
  229      1      26.73934473       20.20885465       21.62941534
  230      1       7.62895803        5.59972210       10.27376880
  231      1      22.43028817       19.83632339       13.50321046
  232      1       4.38398948       12.14397682        2.33344256
  233      1       1.14494626       19.03323741       21.64309410
  234      1      21.37268192       16.11134914       14.09832203
  235      1       1.78929687       27.04175892       18.23790737
  236      1      17.06204049       24.93507734       23.60474294
  237      1      20.08236254       24.04025663        1.28717106
  238      1      14.21119025        6.09849521       11.43799654
  239      1      22.25098161       25.20541720       17.92479868
  240      1      14.66204866        9.97883874       23.68280764
  241      1      19.54631149        7.83130395        5.40050089
  242      1       5.42192732       18.69165936       23.73477759
  243      1      24.96435551        2.96100734        0.35403656
  244      1      12.06994489       12.84898842        9.58524872
  245      1       6.89364479       24.95072829        7.52721959
  246      1      19.04333475        5.06429286        7.10595372
  247      1      12.15825079        3.65793677       15.83454296
  248      1      22.53239406        9.81880679       11.62124466
  249      1       1.41219889       18.83046319       16.11277109
  250      1      16.08511591       14.16870336       26.59208367
  251      1       2.97816803        1.15723905        3.78184798
  252      1       5.16721794       13.09301301        0.26207951
  253      1       5.74321914       23.46758193       21.53008954
  254      1      11.83113844        6.85357655       25.48358787
  255      1       0.99277259       15.73462003        5.22287575
  256      1      24.28662336        0.25446669        7.94175328
  257      1      24.62648834        5.18242607        7.83184518
  258      1      15.47864230       27.57233116        9.57280828
  259      1      23.39267945       18.14950288        1.43226705
  260      1      21.18861752       19.97037476       20.31160876
  261      1      25.55063881       16.70612551       24.54890007
  262      1      24.89000169        1.15689687       26.47349648
  263      1      19.96170851       16.89359924       24.08316262
  264      1      12.83281055       18.76273131        1.40475926
  265      1      17.50030693       21.21886820        6.10681235
  266      1       7.52520175       26.62377314       10.76219021
  267      1       9.36280221       24.98178632       21.05503930
  268      1       6.96012551       19.92779195        8.21767189
  269      1       5.43954181       21.48721197        9.34539212
  270      1      16.37692753        3.66214654        9.42951225
  271      1       4.91722021       10.92109425       11.65288319
  272      1      21.79300110       12.01491434       20.41347734
  273      1      15.99418998       21.48990968       11.67944250
  274      1       0.01270188        9.80700856        0.12136357
  275      1      22.36768946        3.77680642        5.43054140
  276      1      17.80324276        7.27415614       19.16471657
  277      1       4.88359746       17.15057498       21.97590953
  278      1       8.92672632       22.89551301       10.55921036
  279      1      20.25777136       24.79942526       16.37147751
  280      1       9.62147514        9.64337920        7.14017083
  281      1      26.76212677        0.83626334       22.32405925
  282      1       1.97258864        4.92220146        4.29372860
  283      1      20.91386036        1.15406441       26.01992612
  284      1       2.60976601        5.84304738       17.65489291
  285      1      22.79372283        7.69758274       14.82966993
  286      1      15.51132893       12.60708382       11.19525715
  287      1       4.38158177       14.68688748       24.25855653
  288      1       1.44511687       10.28660561       24.31265130
  289      1      21.43744099       25.38272004       21.61171333
  290      1      10.38683414       11.23959860       21.56505196
  291      1       4.09295705        4.08945348       16.62794971
  292      1       2.88835640       20.63645741       21.73593465
  293      1      23.46886781       25.73102184       27.20863439
  294      1      20.68660605        1.02670154       19.42934464
  295      1       0.11338929       14.07961971       23.01777031
  296      1      17.88505107       17.57716448       21.24988298
  297      1      14.28703604       15.04383277        0.23590917
  298      1       0.54928843        8.42732248       23.32730438
  299      1       4.76191148       27.11189819        0.60577450
  300      1      19.40077637       25.39751631        8.35487343
  301      1      14.64439071       14.68483127        2.48759093
  302      1       7.23402845       11.04601084       25.64334973
  303      1      17.25528046        4.38076490        1.56745281
  304      1      19.94131542        7.18805576       22.60505909
  305      1      16.81845730       23.89873772       15.59423626
  306      1       4.07023028        9.89427314        2.03745231
  307      1       1.54861090       20.28991892        9.49209272
  308      1       9.48001904        0.82928210        7.06621303
  309      1      24.96497053        1.04815055        5.90113666
  310      1      20.17090435       16.97436356       18.22001432
  311      1       0.85716513        3.24061505        0.12089427
  312      1       3.10924365       10.97537003       22.78500583
  313      1      23.79773061       22.18964791       23.00760092
  314      1       1.37470536        1.64520524       18.76630188
  315      1      14.88385296       27.49333625       17.56603555
  316      1      13.25138925       21.45417058        5.42159565
  317      1      25.63474845       18.96187737       11.96056055
  318      1      24.62735489       18.45040324        9.79598597
  319      1       4.25574110       24.74009305       12.37742515
  320      1       7.76495418       24.31447076       13.63718039
  321      1      12.54112114       17.65576181       24.84644210
  322      1       2.03625882        9.32790790        5.52621899
  323      1      20.30377485       13.00766195       12.26585129
  324      1       9.91010522        0.72264092       19.94465947
  325      1      23.95078520       22.62200383        8.02021426
  326      1       8.33338062       26.44240150       12.85331995
  327      1      23.44659521        5.99236388       11.52645372
  328      1      14.81676924        7.74126389        5.24630821
  329      1      21.67032067       22.34890003        7.59679214
  330      1      23.75463719       16.28467426       13.93934057
  331      1       3.79713256        5.17989337       12.56772216
  332      1      22.59150094       18.78563173       21.82594368
  333      1       0.66404539        3.78408142       21.91524085
  334      1      10.99825116        2.23326140       14.26433145
  335      1      26.22654991       21.18286447       11.83105554
  336      1      19.63930756       20.47384407       11.18363051
  337      1      24.83630333        5.21497407       22.56033328
  338      1      19.89217315        4.35960637       11.00467315
  339      1      19.07085335       19.70630951        7.09567949
  340      1       8.79023153       13.05609247       13.39023131
  341      1      11.44053869       11.05593574        1.93083194
  342      1      18.73610075       19.18268403       27.05244835
  343      1      26.90734906       15.84803757       15.41872716
  344      1       3.54315653       25.86622188       23.99030355
  345      1      10.10968496       21.99276757       19.14916189
  346      1      24.08399996       10.91536340        0.85432882
  347      1      13.46854941        5.13635919       25.08413376
  348      1      25.88658404        8.62102688       13.47742878
  349      1      26.24316777        9.57355127        6.93283073
  350      1      18.23754828        1.13146541        7.25997412
  351      1      26.85031197       22.91682743        3.33726317
  352      1       8.09663415        0.30284928       26.40045412
  353      1      12.94356326        2.31040465        8.25323351
  354      1      19.73210269        9.00190330       25.46429085
  355      1      16.11450432       14.91406294       24.34332591
  356      1      19.74144788       12.44824972       10.01453706
  357      1      18.20541546       13.28012362       19.18801984
  358      1      22.63996775       18.80991679       25.63894410
  359      1      25.85583982       25.25942575        9.99623200
  360      1      15.12365047        4.40044611        0.67228652
  361      1      12.36817403        3.04570367       25.69678105
  362      1      10.16807446       20.42742863        2.71867094
  363      1      26.13399520       24.72328909       12.14857865
  364      1      16.19559138        1.16877673        2.08548441
  365      1      18.98964929        0.78647621       17.80212600
  366      1       6.61029114        6.74430926       24.02582522
  367      1       6.65459942       15.70468261       21.70075925
  368      1       8.36879346       25.88548213       27.55236732
  369      1      15.57018788       20.09370178       18.01929533
  370      1      10.84668605       27.49831571       23.69096137
  371      1      25.68568576        3.54193571        2.69796518
  372      1      23.16189625        5.74793735       17.98322876
  373      1      14.33904609       12.64814120        3.50362096
  374      1      16.81270177       15.47121360        2.98956737
  375      1       6.22349299       14.49743392       19.72314621
  376      1      26.13925045       20.47650814        6.44131550
  377      1       9.04235556        8.36100472       19.79090741
  378      1       3.96012628        7.33755982       13.58751483
  379      1      27.05022577       12.79608196        9.49918243
  380      1      24.74144728       19.94804976       18.42823713
  381      1      12.73714278       22.29621185        9.45605560
  382      1      13.04225070       23.69613218       21.27360552
  383      1      23.92543476       10.49516111        9.80059813
  384      1      18.11461755       11.37981789       20.78004793
  385      1      14.30866394       20.61171418       16.08211936
  386      1       5.84201284       19.69227144        6.20240546
  387      1      27.07116494       19.76614750        0.83712192
  388      1       4.15586247       17.76257669       19.87808833
  389      1       1.06128719       10.92500452       17.33611136
  390      1      11.12057076       22.31435424        1.71938662
  391      1       1.60319268       17.62903149       23.51585984
  392      1       3.77811680       27.24052465        7.15493255
  393      1      26.44576591       21.52119227       15.37509368
  394      1       7.37080101        0.42055712       14.26607761
  395      1       4.52959191       27.19243013        3.06036199
  396      1       5.50755367        3.49477731       13.10000870
  397      1       5.63069562       15.32122455        7.30109403
  398      1       6.30780612        0.04280688       20.91234479
  399      1      27.07969721       17.85313046       16.58445626
  400      1       9.02890290       18.39613091       10.89971581
  401      1       7.89018203        1.26785668       10.22871737
  402      1       1.80763408        4.16632629       13.21956323
  403      1       5.68367788        3.31110412        4.07676533
  404      1       7.41776993        8.24597069       13.02827046
  405      1       1.05491080        7.46257892        8.68587028
  406      1       2.71993905        9.66746556       16.10578500
  407      1      25.28592745        2.21950329       10.47864950
  408      1      19.31294579       26.72715934       10.35290466
  409      1      18.40132137        2.68635436       10.46851858
  410      1       7.56215051        5.38025228       17.90551442
  411      1      18.33318615       17.21558483       25.82106587
  412      1      11.86067453       10.88337774       18.34705966
  413      1       6.13304724       25.21157177        0.23026275
  414      1      14.51414186       21.29975216       23.83920725
  415      1       3.09176516       15.61923763       12.24349670
  416      1      12.21051750       14.24199267       27.10741602
  417      1      21.62696361        1.52056249       10.68909694
  418      1      22.91839266        0.00650172       12.95049277
  419      1      10.67929596       26.41795871       12.67347942
  420      1       6.59701721       10.52711511       21.76795189
  421      1       0.60648377       12.38775900        4.10274532
  422      1       7.73651164        9.75327816        3.80298362
  423      1      19.92299173       23.24691382        8.94303277
  424      1      20.71228604        8.45090624       10.67772334
  425      1      22.42136663       24.14902187        1.00007240
  426      1      17.26850588       20.76753234       26.00523605
  427      1      12.76982914       18.45002917       11.17367542
  428      1       3.37734680       25.04786025       14.77251136
  429      1       5.83314801       12.96846621        4.02362791
  430      1       7.39628487       13.00739140       26.94152917
  431      1      24.48826619       22.81378593       14.84004501
  432      1      22.71991196       22.91334070       11.31088318
  433      1       3.54489832        3.31151848       24.40592898
  434      1       0.61881097       22.79350417       16.43536471
  435      1      21.12714452       25.78046647        6.72482387
  436      1       8.42903770       24.92833858        9.40182216
  437      1      15.99994989       23.79394155        8.80907486
  438      1      12.98378347       25.40363936        1.11199834
  439      1      20.72803145       13.12580474       16.67812673
  440      1       3.83381488        7.92424278       17.15245606
  441      1      17.26215297       25.18447729        7.41656069
  442      1      17.27972455       15.77037108        8.70424812
  443      1      10.10701020        5.07977284        0.85408164
  444      1      15.33071980       14.91812459       11.93752739
  445      1      11.02103059        9.07181930       12.56386503
  446      1       4.37742152       22.29935610        3.82159481
  447      1       4.93153678        7.01652160        6.04012778
  448      1      24.89640370       19.00792513       24.81893775
  449      1       6.45863453       27.35952427        4.39582024
  450      1       9.40892869       27.38647034       17.73894534
  451      1      27.58760493       26.68647704        4.09818227
  452      1      19.61818756        9.31776751        0.07235072
  453      1       1.96172834       22.90022540        0.56854647
  454      1       5.93145485       10.83834040       19.50229215
  455      1       0.59085318       21.63192289        2.02465092
  456      1      17.32588268       11.96279468       17.34275383
  457      1      11.18661870       24.28968080       13.70981836
  458      1       4.62627338       15.21908943        0.68354620
  459      1      22.03460804        3.98486103       12.17992460
  460      1      20.13294632        5.58452915       15.38064479
  461      1      19.80057638       12.86486242        1.86563801
  462      1       4.38457464       11.45489403       15.75405119
  463      1       5.28320261       27.53056731       24.50150375
  464      1      13.22574490       15.10372100       13.15663482
  465      1      23.14232797       22.79184769       25.14210840
  466      1      17.09745783        9.27837576       11.95706211
  467      1      24.62163611       20.19210415        4.67748336
  468      1      21.83447087        2.65634288       22.65169095
  469      1       7.77518431       16.40252722        7.50524743
  470      1       5.33513892        6.84853698        3.72295221
  471      1      25.62673579       11.66578882       25.05256672
  472      1      22.94466907        1.60215024        4.88798382
  473      1      22.49972382       11.99644074       15.40882877
  474      1      27.58242646       21.94304374       22.99496699
  475      1      11.44195325       21.27186460       25.88282627
  476      1      15.71521644        2.27591837       20.24716571
  477      1       7.73904260       11.43689156       18.14133925
  478      1      22.79256963       12.30406025       27.21615905
  479      1      11.84399977        1.29217996        4.52506355
  480      1      12.21445592        4.61136296        8.35558284
  481      1      22.35571632       19.72847496        5.13147488
  482      1      14.56735926       23.01297640       15.50298150
  483      1       6.71404735       14.43059815       23.62254184
  484      1      17.89163364       19.15950232        1.62606892
  485      1      18.68982270       14.96542523        1.72311726
  486      1      24.67087069       24.97542580        6.05672050
  487      1      19.45380119       22.25858217        2.83807996
  488      1      16.12311030        4.83573731       11.64470522
  489      1       9.29551433       17.14131700       16.82561650
  490      1      12.21150646       15.79874728       15.23504438
  491      1      11.93720878       20.33709665       16.44195335
  492      1      27.22554929       15.74440022       13.00927409
  493      1       3.16617939       22.95292471       15.73493502
  494      1      19.14951245       26.15656090        2.09560223
  495      1      17.89573054       22.74845012       18.65291182
  496      1       0.05966342       16.91649679        8.45574401
  497      1      23.50257711       25.13787912       24.95485722
  498      1      20.17734053       27.13214635       24.64612266
  499      1      24.64882232       15.46944663       15.89226754
  500      1      18.82694209       13.34052935        6.30194988
  501      1       6.38781459       22.00133830        2.39104758
  502      1      18.16579985       14.05127809       23.45176779
  503      1       1.61364627       19.39184731       13.64753474
  504      1      22.36751203        0.37198229       15.26674852
  505      1      17.88854539        5.39823672       14.72316714
  506      1      16.04414282       10.06282847       17.99845736
  507      1      22.04484681        6.74083529        9.73940167
  508      1      12.89840582        9.39099827        2.69588910
  509      1      13.79704182       27.58143410       13.56257837
  510      1       3.02730204       15.58037825        4.16508586
  511      1       2.50553660       16.42976420       16.14294535
  512      1       8.66136660        8.08736194       23.83142211
  513      1       7.92085601       16.83964532       26.23743689
  514      1      17.86533330       26.60665495       22.13437359
  515      1      12.71285043        4.76647779        6.08173931
  516      1      13.21405186       23.73747097        4.65714382
  517      1       7.10135987       20.18314866       22.98718691
  518      1       1.37275090       10.16958368       12.54209432
  519      1       9.97838226        5.52214906       18.06787536
  520      1      18.63121183       25.44297013       25.39940786
  521      1      23.20417806        1.98045994        9.06554538
  522      1       3.95918904        5.51062125       10.19324639
  523      1       3.11314677       15.91813074       22.69697658
  524      1       4.10877053       12.22922012       13.52728758
  525      1      16.34891406       17.28179380       24.60800267
  526      1       2.47736261       26.65446192        0.12380586
  527      1      12.88337925       25.99160112       20.58524998
  528      1      20.83562555       18.38324361       14.37158437
  529      1       3.92118146       21.83073217       27.17873527
  530      1       4.65790189        3.30628422        6.19008423
  531      1      14.80971440        8.22913989       12.20911261
  532      1       7.30991614        7.76159417       18.15866143
  533      1       6.49115232        3.32084909        7.59108337
  534      1       4.86650324        8.18109060       24.39078261
  535      1      14.25704239        3.46304798       16.81457259
  536      1       3.22273832        3.71924629        0.52603491
  537      1      23.85341081        6.77085342        3.07959733
  538      1      18.96331315       21.19729382       17.07457268
  539      1      20.48346545       23.08526228       14.60371040
  540      1      23.70973140        3.74284467       19.33086075
  541      1       1.20942041       23.83487683       20.13890521
  542      1      12.91370499       23.01203925       23.58295595
  543      1      13.40460983       23.60771242       13.40914495
  544      1       2.62909724       25.66759611       20.01518565
  545      1       3.03736830        1.55984768        6.14616525
  546      1      24.68763491       11.71225828       22.85182929
  547      1       7.97274459       18.91873183       19.90094809
  548      1      10.91894949       19.27619470        9.92238139
  549      1       4.68375417       22.19694324       24.87525953
  550      1       3.39013720       12.60018659        6.71341456
  551      1      23.85026682        2.38364091       12.66250627
  552      1      17.63684097        6.38450306        2.54069190
  553      1      18.53176135        3.14269611       17.72265725
  554      1      17.55875010        1.83940102       25.19247045
  555      1       6.77087828        3.22938200       22.24837017
  556      1      18.99772307        1.66711877       27.29727589
  557      1      17.77152556        7.95885404        0.81533782
  558      1      23.14543904       23.27181272       19.28317177
  559      1      22.84984765       25.36629197        2.85987765
  560      1       0.11695940        7.41326454       20.12201880
  561      1       7.72495532        4.75222774        1.44829844
  562      1       0.68030920       23.71168539       12.64562945
  563      1      20.27962851       16.70244894        2.12597966
  564      1       7.56601506       11.51017464       12.04206533
  565      1      26.85774343       24.25630924        6.76167239
  566      1      26.71268756       13.08009457       19.75314366
  567      1       0.90336764        2.08284098        7.24876914
  568      1      17.39275286        3.29049228        7.18573583
  569      1      27.30987518       24.95407207       16.04359227
  570      1      20.91883569       22.04814398       25.61095571
  571      1      13.40003858       15.21562102        5.95127886
  572      1      17.08538320       20.48553267       13.57643484
  573      1      25.51000827        0.29056812       17.43316223
  574      1       2.60973055       26.98640483       22.11902817
  575      1       8.91205252       18.80570795       25.50758041
  576      1       6.25133333       24.42789138        2.38538094
  577      1      13.11559850        7.47424253       17.73444018
  578      1      14.60410874       19.64683658       21.85274431
  579      1      15.69460904        8.54155553       21.96990761
  580      1      27.15527005       21.56106454        9.70525209
  581      1      21.25683156       18.76438340       23.74628913
  582      1      23.30177052       23.80934448        4.53195995
  583      1       6.67545989       21.07429203       20.77320571
  584      1      24.43599132       15.95093810       10.10825196
  585      1      20.60573064        6.90670297       24.84155254
  586      1      14.64428979        2.02115533        9.76195318
  587      1      25.86868674        5.80173860       11.18848126
  588      1      13.56084133        9.79923144       15.14688210
  589      1      17.18603818        4.76706044       22.96518067
  590      1      21.40703270       20.14610201        7.25377106
  591      1      18.68820606       16.83117702       12.06163143
  592      1       4.90441011       14.38674824       12.98567999
  593      1      11.02727243       14.75553297        3.06278337
  594      1      20.91672648       20.32388134        3.23619080
  595      1      17.85659074        0.00404923        0.73362212
  596      1      25.40766205       26.80207789        4.70440425
  597      1       0.20561871        4.96579242       17.51510903
  598      1       7.41338726        4.35522924       14.11910607
  599      1       8.89518507        4.42715190       25.08268274
  600      1       7.50792735       14.19844672        2.98639820
  601      1      11.74968987       15.90893226        7.73767398
  602      1      12.03877107        1.88695685       23.65691037
  603      1      17.53729789        4.22323356       25.19901543
  604      1      13.72636196        6.28318996        9.20190218
  605      1       3.55267654       12.21538397       26.50348281
  606      1      17.59168044        1.64581566       12.37850901
  607      1      27.20427270       17.11549091       18.87917872
  608      1      27.65239554       26.67449783       25.07300850
  609      1      16.24011592        6.83576888       15.76240434
  610      1      25.84405246       26.43002403       21.71379480
  611      1       4.49350732       12.71572960       19.42133984
  612      1      19.49327225        9.17219267       16.40766861
  613      1      25.40089118       23.30515301       20.13768914
  614      1      11.53763758       26.53926457        4.81049770
  615      1      18.00836044       10.44503149        9.96668077
  616      1       2.07686550       19.46053875       25.12633353
  617      1      13.66116225       26.15299750       10.17535472
  618      1       9.03113655       20.82069073        7.34322812
  619      1       1.98525812       19.91917193        7.18206912
  620      1      10.74136298       19.87260216       22.18750532
  621      1       6.88658091       22.81214943       16.95456060
  622      1      11.96440964        9.56470896        7.21441524
  623      1       5.78360401        0.94762280       26.70213160
  624      1      16.86059906       15.93000820       13.35054805
  625      1      15.21710420       11.41076296        7.14915408
  626      1      22.66660238        3.88303452        7.79103104
  627      1       5.83969675        4.24217903        9.61848846
  628      1      15.99089855       16.66592820       20.22800434
  629      1      10.66425603       22.03432465       23.40493674
  630      1      16.16374757       17.69669344        2.22282915
  631      1      20.61552787       13.58737014       19.09669227
  632      1      24.40122682        6.38611321        0.70065764
  633      1       0.90935719       14.65992528       16.68115462
  634      1       1.25817509        2.83649846       24.05396919
  635      1      18.26540373       22.10841904       14.98628342
  636      1      16.92094153       26.46582183       26.66363754
  637      1       5.67640093       17.65187442       25.98661923
  638      1       9.06867025        8.83205139        0.13281704
  639      1      23.62281312       22.10568195        1.17583925
  640      1      27.44709953        3.89879338       25.59630196
  641      1      11.01630867        1.20648506        8.91783366
  642      1       9.13914670       15.10015297        4.43050392
  643      1       4.62986811       20.11366644       20.14988287
  644      1       1.37415668        2.68834206       11.21348449
  645      1      14.50138937       27.12762322       21.88217239
  646      1      19.32563853       13.75842233       25.54043406
  647      1      21.33621677       15.77053484       27.46431888
  648      1      12.32255730       15.24072658       24.86314351
  649      1      21.53490327       18.26594323       16.74528801
  650      1      20.10116068        6.55034951       19.07432454
  651      1      26.91413790        9.66092606       11.70728656
  652      1       5.23488447       14.01275066        9.26856540
  653      1      25.30315306       12.03938271       18.19060991
  654      1       8.07339949       20.88722846        3.61283126
  655      1       2.02427035       12.77253437        2.26742807
  656      1      11.87048663       13.05278129        5.93533629
  657      1       6.64627322       16.04614931        1.80015348
  658      1      26.21905258       20.37898561       26.29706634
  659      1       7.88356599       22.66430606       19.06337449
  660      1      16.24590660        7.57003096       26.69086271
  661      1      19.40132880       18.52913924        3.31910484
  662      1       0.94242629       16.23549364        0.74140363
  663      1       1.17051241       25.34186979       14.22493090
  664      1      17.12837640        9.80799712        2.42444978
  665      1      14.99798459       14.54758067       17.58804109
  666      1      11.99463430       12.64309969        3.58278314
  667      1      13.06987209       19.81830836       12.99292670
  668      1      21.14050855        9.10333054       22.09082968
  669      1      20.75924301        4.96202481        8.83329443
  670      1      24.07060391        7.55837240       19.19847471
  671      1       8.49691963       11.71055780        6.83026987
  672      1       7.56962262       13.61844495       15.28295136
  673      1      16.40891098       27.31611708        7.46959463
  674      1       1.55764998       12.81777288       10.24247521
  675      1      25.68827986       11.54706855       10.92765424
  676      1       8.23105214        4.80264598        7.07026541
  677      1      20.40277725        4.74356742       17.59388486
  678      1      10.43969611       18.61895385        0.94455541
  679      1       1.94860920       22.76823246       22.08334680
  680      1       3.37715784        2.45369389       19.77165801
  681      1      12.64294489        8.66834200        5.05798171
  682      1      19.91047033        1.97227116       21.59350736
  683      1      15.34824679       23.85447331        3.75761247
  684      1      23.29701292        9.74891638       15.90796669
  685      1       2.28133810        8.79406958        3.19106846
  686      1      22.45314175       10.15270520        2.58569603
  687      1       4.22704820       12.30133943       24.29412829
  688      1      20.73001800       26.30144193       12.36740472
  689      1       5.28076727        8.59808430       18.87900803
  690      1      16.92328627       15.40572104       18.51340085
  691      1      20.95451133       10.22927479        7.21722767
  692      1      15.60468362        5.30572128       26.22040085
  693      1      18.97449191       17.79750770        5.72229561
  694      1       1.90933822       25.53849326       25.72644606
  695      1      21.40827516        6.52436717        2.15053835
  696      1      23.54701871        8.18609536       27.10489358
  697      1      19.06060286        0.69286830        5.13596361
  698      1      20.97764262       11.77488261        3.65292621
  699      1      23.49026222        8.33565036       21.61747590
  700      1      21.19349486       27.60271516        5.14699273
  701      1      25.05166865        8.74514919        8.74984754
  702      1      10.72934732       23.10825114       21.05499094
  703      1      10.51885060        6.73687626       12.07804532
  704      1      22.30774826       21.65631140       15.02446762
  705      1      19.28473129       15.85516723       22.05660100
  706      1       0.09256343        3.01129734        3.75199770
  707      1      10.78384758       26.75979294       21.40470492
  708      1      15.11965218       19.35041935       14.33317932
  709      1      16.42471837       27.61373071       20.60119817
  710      1      23.23848144        4.53901966       25.48386299
  711      1      14.52406954       17.40984152        0.42114538
  712      1       8.70195786        0.56228068       24.12572799
  713      1       5.46053119       17.69722809       14.59605697
  714      1       2.43882353        6.48601477       19.92621744
  715      1      16.31031539       20.09668301        9.81213440
  716      1      10.19122832       19.02838063        6.25529336
  717      1       1.34484782       27.52024598       13.43260652
  718      1      11.32003851       10.71129976       25.47080977
  719      1      25.41998901       19.42014450       16.06960663
  720      1       2.00140744       20.00965898       18.04141087
  721      1      19.18233335        2.62529805        3.78899439
  722      1       3.71615995       10.07677169       27.35258920
  723      1      24.23492247        4.77101822        4.23453207
  724      1      12.28037257       11.83663368       27.40821111
  725      1      10.09145240       13.38072302       20.26170343
  726      1      23.34622086        8.81631535        4.29520875
  727      1      13.71159549        1.94688765        5.96651814
  728      1      23.41980428        7.29952654        7.94043457
  729      1       0.13457423       16.04928291       24.37036249
  730      1      26.76351225        2.65901293        5.84536344
  731      1       0.42828253       21.22741730       25.15583715
  732      1      26.29629259        4.40072799       19.30258418
  733      1       7.24713354       17.93124388       17.85665485
  734      1       1.47145596       11.53899437        6.00280014
  735      1      19.22098076        2.14458185       14.21084320
  736      1       7.71922434        1.84901370       20.41392593
  737      1      20.93146992       14.32634558        6.45275260
  738      1      12.82193570       11.67642671        7.57588021
  739      1      13.80118132       18.72091465        7.77286087
  740      1      23.18308378       14.49262594        2.86050901
  741      1      19.14952278       11.48756409       15.96570816
  742      1       8.24458422       13.61775389       18.82471975
  743      1      22.90173686        6.86476107       25.19700804
  744      1       7.06648769       21.80725786       24.67532670
  745      1       3.35529371       21.31523738       10.65419447
  746      1       0.96127888        0.50201573       23.51387009
  747      1       6.04764188        8.72380995        2.51511637
  748      1       5.72368441       17.27775644       10.79022069
  749      1      10.00007498       26.21786380        6.54737253
  750      1      18.48218365       19.41501107        9.39042776
  751      1       9.22096994        1.73956657        0.07793498
  752      1      22.66115557        2.62973740       15.76154367
  753      1       3.78338796       20.28787209       23.85981795
  754      1      15.75751918        3.37704938        5.42794018
  755      1       7.12539305       18.87046519        4.39476267
  756      1      23.14131441       17.05288976       27.11709237
  757      1       3.79442866       20.21365598       12.72260424
  758      1      25.63468755        9.62161758       26.43685593
  759      1       8.80528185        8.93828068        9.39803636
  760      1       0.10729174       17.96855840       12.27517199
  761      1       3.16001431       17.18233651       13.97560652
  762      1      11.04230997       19.66243456       14.38051211
  763      1       7.43336793        1.66279220        3.65864005
  764      1       2.59748573       15.01935863        1.96129916
  765      1       3.73930363       17.74144525        4.12500481
  766      1      19.17105382       18.71355342       19.58353208
  767      1      14.60552018       18.13458979       25.86446982
  768      1      18.61040881       23.02887921       20.86710785
  769      1      17.08623031       16.50610035        6.50894415
  770      1      20.70866341        8.84104666       18.42993101
  771      1      24.40504993       13.15411800       16.26285776
  772      1       8.69814975       23.39868265       24.15698140
  773      1      14.01953477        1.92637184       18.62670625
  774      1      20.16244194        2.70440155        1.53225308
  775      1      10.46937933        7.18772891        9.74574022
  776      1      20.59614514        5.55766458       21.12981873
  777      1      15.60691766        2.88339901       12.89926158
  778      1      13.27373538       11.82170344       11.26324383
  779      1      19.43862946        9.07599079        8.73966030
  780      1       7.41553921       26.91349075       16.24894009
  781      1       4.80237993        7.67439398       10.02569569
  782      1      24.59115036       26.83806246        2.54810437
  783      1       3.64385965        6.00487915        0.50677102
  784      1       3.71500972        5.12694312       22.99295550
  785      1      13.66360065       23.58776526       17.63934383
  786      1       7.19337415        6.90096869        6.79981497
  787      1       9.66628932       13.61730933        6.20413915
  788      1       4.95903798        1.93973378       23.27473351
  789      1      27.24834832        2.15158577       20.29055192
  790      1      22.08612216       15.37427267       10.02629267
  791      1      21.50649335       13.48441685        8.65269363
  792      1       6.50171786       12.00818686       23.63549018
  793      1      23.95907903       12.19048587        6.03981167
  794      1       6.13487533       26.18220963       19.22710637
  795      1      27.48481639       25.05389686        2.45026055
  796      1      25.01842249       15.17185065       12.28616324
  797      1      25.73427743       13.66388629       21.93152185
  798      1      15.15271845       25.42932981        2.13778603
  799      1       4.51584734       14.23174055        5.42152299
  800      1      10.10737391        6.22789789       24.04917482
  801      1      10.69359177        7.50380063        4.37352088
  802      1      26.45879054        6.49738199       16.41950086
  803      1      20.09999176       20.87178386       23.68121136
  804      1       9.49935431       22.93460002       12.90826568
  805      1      21.18977943       23.61894690        5.73053093
  806      1       1.82056679        9.21208437       26.48051877
  807      1      10.74296342        3.40557114       17.70400401
  808      1      21.07722067        3.69596586       14.31227098
  809      1      21.02720160       20.09709858       26.94601532
  810      1      27.57493035        6.24135222        4.98747779
  811      1       8.53234728       17.03485413       21.51378804
  812      1      15.88036967        5.96488268        8.20994957
  813      1      16.52901514       11.83638420       26.79037313
  814      1       8.33589001       14.69413795       25.27439546
  815      1       7.60991484       24.68533195       22.53112122
  816      1      26.41499607        7.85512296       24.83879410
  817      1      14.53378308       10.97633340        0.06625360
  818      1      11.66108562        3.03324385       12.16246350
  819      1      10.86995985       12.37863222       14.45894097
  820      1       1.67187604       18.21027013       19.56745521
  821      1      13.80895890       21.06804257        7.66261433
  822      1       0.75985897       11.33016483       19.85503898
  823      1       0.76467280        3.61695034        9.07703508
  824      1      10.27105266       14.71367227        0.86395889
  825      1      27.36717480       23.84587866        8.98451693
  826      1       6.16849979        5.21590916       15.95725974
  827      1       0.82381001        0.91272248        3.01575647
  828      1       5.89063008        5.62394953       22.09351718
  829      1       8.82616163        9.60421381       11.75185938
  830      1      26.63824747       10.84861400        3.43957879
  831      1      19.59690630       11.23957540        5.49014092
  832      1       2.21043361        5.38677651        8.54965967
  833      1      15.47144443        0.04673426       15.25195367
  834      1       4.14271623        0.92576246       21.37498293
  835      1      25.87005583       12.23449875        1.69121956
  836      1       8.37586185       24.62379797        5.70201145
  837      1       2.65260030        4.43781235       21.01795987
  838      1       8.04523357       24.58962147       15.90767578
  839      1      22.02592397       26.71882027       19.76555102
  840      1      22.26343063       23.20381712       21.46260028
  841      1      10.32609876       15.37567504       21.61233105
  842      1       5.24036507       18.82275906        0.40815393
  843      1      12.27989915       10.18680181       20.47080174
  844      1      24.97554016       15.66614336       26.60531211
  845      1      13.29345888       24.82239544       24.92843815
  846      1       2.21407914        0.49928216       11.24743203
  847      1      24.34276744       15.51797373       22.74929360
  848      1       5.89128548       23.19330452       12.79951698
  849      1      19.14671810        7.94838527       12.46690122
  850      1      17.51522426       21.46620133        1.78831935
  851      1      15.64863239        2.43514512       15.21598052
  852      1      16.71313235       10.70053983       24.64858237
  853      1      15.15889183       13.33767011        5.64581137
  854      1      11.66909094        2.34816407       19.61985638
  855      1      11.46422405       22.56207116       17.28281467
  856      1       1.91478749        8.46834938       14.14087229
  857      1      23.19359881        0.79161447       22.83334710
  858      1       6.87458601       21.04043758       15.42249920
  859      1       9.03018915        4.32489619        4.99695573
  860      1      10.47245156       24.36756712       15.97281115
  861      1       3.33163496        5.21865183        6.36963527
  862      1      14.26575602        1.50593056       23.21338661
  863      1      20.21429826       10.24966600       20.28168329
  864      1      18.54734357       12.38478443       13.77726260
  865      1      27.23555549       26.33805787       17.90411465
  866      1       6.79661330        8.17805090        0.32695976
  867      1      11.06076422        5.26637474        4.50328455
  868      1      22.75897317        0.32436915       27.21108159
  869      1      23.62941084       17.09577858       17.26047828
  870      1      20.92617058        4.73192087        0.56015023
  871      1       5.25775215        8.59582554       12.11649670
  872      1      25.02399316       10.07275593       21.28361211
  873      1      13.93887079       16.41449943       16.67272950
  874      1       3.41378252       17.01300576       10.19529675
  875      1       4.42089462       15.23719327       16.73753280
  876      1      21.84410703       13.80183684        0.98747750
  877      1       2.97273927        0.83412479       14.83824748
  878      1       3.12586085        6.56895959        2.82868348
  879      1      26.12972688       27.59178797        9.36099292
  880      1       6.78495592       11.31232136       15.97313356
  881      1      15.09422838       18.46833290        4.20079576
  882      1      22.95660172        9.28783189       18.16484511
  883      1      13.79740752        5.83791997        1.95864945
  884      1       5.19797062       26.27621063       10.80471179
  885      1       2.73093365        7.03689238       24.07640672
  886      1       0.41787530       27.59188190        7.97939352
  887      1       1.94825488       24.49342981        9.19863534
  888      1      18.81413303       17.17485182        9.74862585
  889      1      22.46317278       16.67533914        3.02210524
  890      1       1.51639920       15.51123980       26.28563525
  891      1      12.29150223       16.63026706       21.01247457
  892      1      13.62857580       21.85271014       11.80944078
  893      1      25.92285307       25.78091235        0.60950730
  894      1      12.17798899       27.20154529       27.40898759
  895      1       2.85463626       13.80226073        8.64055642
  896      1      19.46195033       26.24771152       14.51641414
  897      1       2.97229901        8.82783282        9.06180486
  898      1      22.81917529        4.42862013       21.42560088
  899      1      25.17647177       26.55551449       13.37937019
  900      1      17.51317368        7.24120210       22.93574050
  901      1      19.23316990       22.81013395       11.10424106
  902      1      17.10108340       25.95027954       14.48087105
  903      1      26.73873854        5.52979946        0.98439121
  904      1      17.78045899       14.36188557       14.77955345
  905      1      14.24211111        8.77415124       27.03768553
  906      1      17.12715030       26.92219179       18.36279120
  907      1      23.94240419       27.60198041       20.78029492
  908      1       0.62353484        2.79606446       16.75801433
  909      1      11.31348613       26.48005427       16.64581014
  910      1       9.59838252       26.09878173        2.08728920
  911      1      26.76815948        7.82402339       10.15602052
  912      1       6.02868154        2.46831810       10.95044807
  913      1      20.39954533        7.82059342       14.65046310
  914      1      22.09128415       26.47152005       23.57616490
  915      1       6.71253514       11.28411822        5.36588079
  916      1      24.61773253       22.18109914        3.33426348
  917      1      22.23195868       20.21508674        1.30129687
  918      1      26.51866845       10.08179758       17.36640281
  919      1       5.36898960        7.34459644       15.50068753
  920      1      11.30929283       12.10663082       23.54750266
  921      1       8.93194543       20.86153173       13.96776876
  922      1      13.56094748        5.24529839       22.62216812
  923      1      17.50502475        8.52441167       24.95126328
  924      1      17.30543906       24.53441758        5.13605406
  925      1      26.11889747       14.98635093        8.66271481
  926      1       5.74820335       18.78761394       12.55916671
  927      1      11.65755050       27.63703466       14.47637532
  928      1      16.44351373       12.02407438        9.08485111
  929      1      13.66015798        1.27860478       26.74704686
  930      1      17.75984432       19.28843591       17.69292435
  931      1      19.63271524        1.10479505        9.31934581
  932      1       3.52414214       13.09033283       17.26827606
  933      1      20.08833392        4.40748424        5.01502993
  934      1       2.30369684       26.85093825        9.16103385
  935      1      20.99832745       15.73048400       20.18067350
  936      1      15.44766738        7.28952483        3.10340750
  937      1      14.88911851       10.65639080        2.34802915
  938      1      22.40682844       11.95449505       12.95510282
  939      1      14.73176499       11.77295036       14.46684333
  940      1       8.15296448       22.20637700        5.58694884
  941      1      15.79354354       17.21075985       15.19171153
  942      1       5.72229690       21.97293618        5.77560496
  943      1      12.62483776        7.79089773       19.97903075
  944      1      12.23753144        2.14245778        2.36034277
  945      1      26.10140877        4.23758146        9.49873730
  946      1      15.45251990        0.52844857       25.32244323
  947      1      12.49397851        8.29926805        9.19181844
  948      1      15.55708120       22.31183649       18.74949781
  949      1      21.33688820        3.24881855       24.90428682
  950      1      25.29016457       20.69812108        8.56081947
  951      1      10.41388243       21.55671089        9.26455941
  952      1       8.68695441        9.49073235       21.83020723
  953      1      18.01400610        7.47024606        7.46036109
  954      1       9.96725238        2.73010693       10.34783557
  955      1      23.68126646        8.02782952       12.75861245
  956      1      21.04391519       15.19680569       25.18664876
  957      1      13.47218214       21.72636833       27.01766783
  958      1      13.63795093       24.44202883        8.59649157
  959      1      15.18193373       15.98178515        9.83988742
  960      1       9.63212677       13.49234837        9.82484753
  961      1      21.04866945       17.11064706        8.90032878
  962      1      26.93493460        2.37112367       12.26258664
  963      1       6.11088243       27.10731114        6.83325866
  964      1       8.65906664       14.66610499       11.67987825
  965      1       8.01988146       20.88541657       26.58350411
  966      1       7.38810039        8.90730785       15.45996775
  967      1      18.34752702       11.28328116        0.76034699
  968      1       4.52590447        7.48119212       20.75796984
  969      1      11.76563268       13.19953867       18.55768583
  970      1      26.36068101       21.25460085       19.55678808
  971      1       0.34245301        8.05240505        6.48924348
  972      1      18.32370274       11.69254429       23.11724240
  973      1       4.61836286       22.93658657       17.64594821
  974      1      11.24125324       10.03581655       14.68029465
  975      1      25.08409058        1.52780587       24.01084157
  976      1      20.85824650       23.91298712       12.41730912
  977      1      25.91016295       12.29698987       14.72108938
  978      1      17.17545645       27.24284602       11.17418075
  979      1       0.88312361        0.83759856        0.62914744
  980      1      14.17182482       11.60305085       20.74279130
  981      1      23.22805853       25.88549678        7.72124431
  982      1      15.15992101        3.47372915       22.26764363
  983      1      24.22827159       13.47765719       25.83924925
  984      1      12.86126171       17.41817481       18.70413233
  985      1      25.86169684        4.85815499        5.88699209
  986      1      14.84890069        5.77339029       17.37805781
  987      1      11.57395723       19.88632274        4.57623342
  988      1       3.57187724        3.26138799        2.91368408
  989      1       8.62985062       17.34611563        5.45982764
  990      1      25.79441072       13.58326860        6.51620350
  991      1       3.96598264       23.68003441       23.16287677
  992      1      17.70102314       16.95186267       16.80214842
  993      1      13.32073085       25.52291340        6.27141593
  994      1      22.34636274       13.32412714        4.74897776
  995      1      24.36212670       18.60202046       13.92677096
  996      1      19.24448332       25.27036492       20.88792822
  997      1      12.25333140        5.31329273       12.54954099
  998      1      14.31705252        2.18209786        1.08940053
  999      1      18.04497300        9.64732850        4.71323329
