run_id:  1010
total_energy:   -3029.9367214107483
  1000 atoms
  1 atom types
  0.0   27.664  xlo xhi
  0.0   27.664  ylo yhi
  0.0   27.664  zlo zhi

 Atoms

    0      1       0.03518918       18.76666038        6.76856060
    1      1      14.70444745       18.60189921       19.59352781
    2      1      19.84245631       15.23755838       15.86646243
    3      1      17.39441920        8.35437689       17.16734630
    4      1      12.86731350       12.80032449       13.31519044
    5      1       8.83813891       16.66569654        0.72050779
    6      1      13.87943352       23.99145675       26.98067728
    7      1      24.73757788       22.88432816       12.50728507
    8      1       0.67060879       26.02412479        6.12313203
    9      1      26.77730045       27.55207801       27.09390975
   10      1      26.26926697       24.04376607       26.53277168
   11      1      24.72124123       12.83061368       12.65169821
   12      1      12.02305913       16.20942869       11.50252014
   13      1       8.77815810        2.83052697       23.40218303
   14      1      22.30364210       12.22223400       22.83436855
   15      1      16.03140063       21.59974877        8.00511347
   16      1      22.72874163       17.42958219        5.21554561
   17      1       5.62137268        9.40534489       26.30660149
   18      1      24.99650487       10.30164761        5.08004240
   19      1       8.61959134       12.95122268        1.24514613
   20      1      25.64147207       18.10407936        1.77963071
   21      1       2.99393154       23.65707303        7.21647864
   22      1       4.98716102        2.30430271       17.97227715
   23      1      10.40346576       14.37694643       23.84975065
   24      1       0.39828106       14.89920128       19.06174410
   25      1      27.42068875        9.48297673       21.19598895
   26      1      12.90465272       18.18982162        3.58432102
   27      1      22.33792710       19.09884852        9.28912037
   28      1      17.72325037        3.24830113       15.58096579
   29      1      27.31379343       22.39061028        5.60938102
   30      1       4.80920759       21.73776295       14.26492846
   31      1      16.69825708       18.83545439       22.84045752
   32      1      16.96805067        2.93390387        3.36311714
   33      1       9.80760378       16.61239256       12.26426353
   34      1       8.22245933        6.08400684       12.55783568
   35      1      15.75291437       27.19362595        3.59507567
   36      1      10.63193307        6.59071540       20.12135835
   37      1       7.07638810       26.92759501       23.02749646
   38      1      21.88770883        2.74879746       18.08903197
   39      1      10.75283331        0.56595972        1.32089324
   40      1      10.80782225        7.15542732       27.63617288
   41      1      10.64825860       25.34455440        8.65856959
   42      1       4.50241921        0.64763860       11.51625272
   43      1       8.93314952       18.79423421       23.14205248
   44      1       1.34909383       13.17527037       26.41295128
   45      1      23.72721441       11.00139129       19.49695339
   46      1      14.35962773        7.66368835       14.48765561
   47      1       6.63770325        5.00585425       25.72357784
   48      1      14.99285518       20.37926252       25.90539463
   49      1       9.76601744        4.85059741        9.00276590
   50      1       1.39798902       18.52821619        1.06944828
   51      1       7.44758583        2.46999353        1.37574725
   52      1      24.52419901       19.93781095       22.68660852
   53      1       0.17643069       21.46414113       13.43549879
   54      1       6.89080468       21.89460360       11.07725176
   55      1       4.66542216       24.46397367       19.59339179
   56      1       1.89275065       18.84721526        3.35374123
   57      1       5.75706266       11.75107214        9.30303793
   58      1      27.16239186       11.74476784        7.36411767
   59      1      23.35561248        4.41918579        0.21297230
   60      1       2.39005262        3.04184105       15.25863613
   61      1      18.80449772        0.72854745       23.31221552
   62      1       8.12355544       11.66330148        9.22298004
   63      1       5.42490744       27.55720023       17.40164532
   64      1      20.46985108       21.77812863       21.55935012
   65      1       7.34723264        5.36942636        3.64729969
   66      1      15.98222622       13.21603981       15.96460329
   67      1      24.45000148        7.22664862       23.55134213
   68      1       0.19063430       12.29231620       24.60481016
   69      1       7.16706989        2.98005498       18.45088874
   70      1      10.41813371       17.34480382       14.58885053
   71      1      13.74044887        9.71343909       17.36805635
   72      1      13.31222324       21.11029624        1.53813059
   73      1      24.86253525        3.52424331       14.77388235
   74      1      26.35013763        1.83412800       15.78299204
   75      1       2.65960565       10.68291481       10.63984015
   76      1       2.60019433       23.55902094       11.19523472
   77      1       7.74414104       19.94388413       12.15166180
   78      1       3.85858850       16.85153109        7.79194750
   79      1      23.71596941       26.57938139       16.60452551
   80      1       6.96201703        7.53745673        9.05295977
   81      1      18.82186329        4.00728516       21.36912086
   82      1      11.04535363       18.98538294       26.23386263
   83      1      14.76830563       27.40768292        5.81451832
   84      1       0.73596394       21.96808530       18.57885468
   85      1       5.66610048       17.99924589        2.75419769
   86      1      26.85091322       25.14261824       19.92529126
   87      1       9.59687868       14.95278525        7.99788706
   88      1      25.29854430        3.79473382       24.48460125
   89      1      24.21699435        5.80228795       15.85878456
   90      1      11.85376731        4.58723509        2.46602066
   91      1       0.55095168       12.56668364       15.63315634
   92      1      20.00557262        0.46123049       15.61863524
   93      1      16.10875303       10.25571652       20.35715922
   94      1      22.83020106       14.21827430       24.06034963
   95      1      17.75364225       20.82281645       23.70667222
   96      1      10.14464129       19.78281316       19.78612877
   97      1      12.96821336        9.45121352       11.22351411
   98      1      25.51237544       10.07431337       15.27053643
   99      1      27.54012154        6.23340256       26.30259807
  100      1      22.74924076       11.60876089        8.02828302
  101      1      15.04654873       26.04388973       23.98881910
  102      1       9.00355153       14.69060782       16.85269010
  103      1      18.93849549       22.89727113        5.01418298
  104      1      17.90628011       26.50708280        4.09726315
  105      1       2.94203062       25.47696849        5.80206560
  106      1       9.69279836       10.01494774       18.14400336
  107      1      11.20414108        5.35012526       22.12706510
  108      1      23.79431783        1.43773341        2.60532430
  109      1      16.06039340       24.52374782       27.65251892
  110      1      13.87451573       13.63052667       19.49569067
  111      1       1.78452367       15.71355706        7.48694216
  112      1      11.09443691        6.91852223       16.52860802
  113      1      12.85808282        7.73179891        0.95092034
  114      1      23.73585368       24.40967926        9.51218969
  115      1      17.09253397       14.56657845        5.22432085
  116      1      19.86028652        4.88044187       25.93807646
  117      1       8.66421327        2.37396239       14.72909057
  118      1      18.94078428       19.03151052       12.96810320
  119      1       8.89426152        2.11593270       17.06531090
  120      1      12.54800608        5.88422676       14.82543981
  121      1      18.13299326       15.14737270       27.07915041
  122      1      26.93600069       14.27026511        4.59975252
  123      1       5.84034584       19.22991975       16.48175371
  124      1      14.47563315        6.79810167       21.05048669
  125      1       2.63634706       12.34374443       20.88045254
  126      1      19.64938210        6.30230764        3.74261975
  127      1      11.13297852       13.92369241       16.30495865
  128      1      20.91075230       16.66872784        6.54793938
  129      1      14.97222292       22.22074455       20.94070260
  130      1       5.01196797       11.03050386        7.10325473
  131      1      14.88731861       17.23033546        6.19688693
  132      1      25.04129779       25.14083501       15.28794915
  133      1      16.88739930       22.74898337       22.47070965
  134      1       5.24068163       23.20545423        7.67853269
  135      1       6.08000531       21.01280453        0.34501098
  136      1       9.61060795        2.06347962        5.01860703
  137      1       3.02695885       19.47591119       27.32773761
  138      1       6.29825313       15.01334448       11.20023463
  139      1      12.94100137       15.83852536        3.71608907
  140      1       9.61493375       24.50229796       26.11728666
  141      1      26.82888377        0.63122789       13.78456140
  142      1       9.15130549        9.69571717       25.61261692
  143      1       3.85211419        9.02657309        6.88229625
  144      1      16.96431767       23.48869242       11.04198862
  145      1      21.61996943        8.60277942        1.02374776
  146      1       1.84497610       21.88847072        5.97397040
  147      1      11.44591583       26.89846107       10.27622789
  148      1      13.74967049        1.83693194       12.00182821
  149      1       7.38570142        1.18576434        7.92475788
  150      1       0.38488253       12.15854174        0.60192468
  151      1       0.07166226        9.15563356        2.40388809
  152      1      15.45314744       20.62135500        4.73487004
  153      1       7.82445648       25.67060824        3.66942253
  154      1      14.08621731       14.38537255       23.39292547
  155      1      24.78340079       17.63486618       19.26986952
  156      1       2.11116129       24.91777697        1.72264832
  157      1       8.46440134        8.33547572        5.43592128
  158      1       1.27867988       14.17493966       12.24386756
  159      1       2.12487682        6.90574209       26.37721517
  160      1       4.27783765       20.58719837       17.91924977
  161      1       5.53289032       16.36172582       18.46681192
  162      1       5.06090546        1.12531151       13.79613052
  163      1      27.45026868        7.07900833       14.33836336
  164      1      12.83942265       15.05869288        9.54842404
  165      1      19.43995496       23.58348856       26.70780794
  166      1       5.85287251       15.26203911       14.88873527
  167      1      11.06090011       18.62472823       17.92204455
  168      1      14.68883768       18.28541803        9.84129614
  169      1      26.59915119        7.24352245        3.02680371
  170      1      11.52246093       24.52231888        2.76413937
  171      1      20.63042435       15.34040973       12.05733439
  172      1       7.39336133       17.92707512        9.25987253
  173      1       1.74662164       14.47729427       21.28500182
  174      1      16.26612059        9.20863192        6.30380950
  175      1       2.26640475       21.14726607        3.71574303
  176      1      18.07502968       13.54878768        8.54474728
  177      1      25.74495415       23.32393261       22.59937042
  178      1      11.54924657       18.17921079        7.91527934
  179      1      25.56042348       18.07817938        4.06109542
  180      1       8.28097897       25.22259927       19.00464350
  181      1      22.64981098       21.00986252       18.74394125
  182      1      15.40287384       21.75849448        2.74322643
  183      1      21.14502784       26.87878297        2.93499796
  184      1      24.98087268        1.47602419       19.39030597
  185      1      21.90833556        8.33242850        6.16258577
  186      1       0.85489809       23.36182135       26.26019607
  187      1      12.59118520       18.44003717       22.55687874
  188      1      17.46131396       22.59215004       27.39713406
  189      1      14.99375886        5.53379355        6.12150711
  190      1      14.20756259       25.58652199       12.39743516
  191      1      10.81269993        3.08716426       22.01066143
  192      1      25.76288533       25.26911520       24.08390134
  193      1      21.81879196        0.98910818        1.61407649
  194      1      10.29093302        3.55815945       26.74316989
  195      1      18.06571627       24.74336584       17.50996121
  196      1      21.34244338       20.63740037       16.92772825
  197      1      16.46997755       25.41478705       12.34461332
  198      1       3.39702527       26.88075510       16.44330226
  199      1       1.22037956       18.08304018       10.21077094
  200      1       3.98253847       15.95668539       26.19317600
  201      1      16.02418592        5.79936391       19.41007762
  202      1      21.96717641       20.53712240       11.21366816
  203      1       3.79263620       24.89258896        3.49106856
  204      1      18.29100749        5.69913920       12.34651820
  205      1       9.08753750       10.61995088        1.87546725
  206      1      26.81067551        5.51378967       21.30626515
  207      1      26.27004015        7.92095915       18.31647466
  208      1      26.87741324        4.87521142       13.20769106
  209      1      12.94099935        8.99630042       25.11129837
  210      1       4.70134512        9.28683223       22.35632544
  211      1      24.80815600       22.20854948       26.75427703
  212      1       0.17821751       17.87884564        4.69398741
  213      1      23.20009606       16.69350767       20.95373249
  214      1      13.19801519       25.92006079       18.13225187
  215      1      14.16439141       15.29113638       21.18143528
  216      1      26.26066337       15.97590030        0.98765981
  217      1       4.90477275        3.19206802       26.41697356
  218      1       3.81488302       18.64499059        6.35220356
  219      1      20.48392609       10.71926181       23.79238308
  220      1       9.91590098       22.37360665       27.23649430
  221      1      11.39548505       26.02327201       25.48239667
  222      1       1.73694038       12.30364918       13.60431302
  223      1       9.78677707        8.86720592       16.11425738
  224      1      17.30385247        3.80570496       19.58234457
  225      1      16.55683055       11.39298526       12.92622188
  226      1      25.53408497       14.40257079        2.60242293
  227      1       6.17808929        5.98573086        0.14485250
  228      1      13.65346945       12.07367459       22.99789757
  229      1      26.73917577       20.21065395       21.62247412
  230      1       7.60833237        5.61926678       10.28187420
  231      1      22.42827125       19.83910390       13.50056361
  232      1       4.35921034       12.18469294        2.33165413
  233      1       1.14597434       19.03797385       21.63556222
  234      1      21.36917530       16.11168373       14.09947250
  235      1       1.79171315       27.04626737       18.22733082
  236      1      17.06920531       24.93019348       23.60533661
  237      1      20.07502211       24.01713462        1.28652673
  238      1      14.20883762        6.09310208       11.45544263
  239      1      22.25718498       25.20930820       17.92624477
  240      1      14.67123495        9.97353951       23.68707502
  241      1      19.52606395        7.83964180        5.41324174
  242      1       5.42468862       18.69970925       23.72958278
  243      1      24.86711469        2.75050178        0.90246360
  244      1      12.06137789       12.78410984        9.52722254
  245      1       6.90224217       24.97855167        7.53007421
  246      1      19.00946901        5.07045599        7.14261004
  247      1      12.16504857        3.65776179       15.84055211
  248      1      22.52743227        9.82053543       11.62640463
  249      1       1.40949216       18.83906844       16.10714745
  250      1      16.07527868       14.14652091       26.59989670
  251      1       3.06268825        1.20989558        3.76008540
  252      1       5.15312528       13.12183347        0.25869257
  253      1       5.75066291       23.47062028       21.52117827
  254      1      11.84257311        6.85124824       25.45899528
  255      1       0.97848651       15.77012621        5.22895187
  256      1      24.27619537        0.29087828        7.87771301
  257      1      24.64696649        5.17902008        7.77652548
  258      1      15.48187382       27.56420650        9.58770137
  259      1      23.38495017       18.15210011        1.43178013
  260      1      21.18752076       19.96816500       20.30973241
  261      1      25.54512474       16.70949140       24.54573081
  262      1      24.92334720        1.26906303       26.64650015
  263      1      19.95551225       16.88662975       24.08388379
  264      1      12.82741606       18.74502745        1.40831884
  265      1      17.49192503       21.20715793        6.10808302
  266      1       7.57048549       26.63818245       10.77122716
  267      1       9.36886095       24.98281493       21.05344866
  268      1       6.96240339       19.93955675        8.21746869
  269      1       5.44045288       21.50708293        9.34094872
  270      1      16.38317314        3.65116441        9.45381294
  271      1       4.90173025       10.92745432       11.65075885
  272      1      21.79267991       12.00612232       20.42168761
  273      1      15.99298695       21.47757104       11.68173819
  274      1       0.00728393        9.84043465        0.12659984
  275      1      22.26634928        3.79451552        5.49152972
  276      1      17.80997276        7.27032690       19.17462392
  277      1       4.88462712       17.15923382       21.96957860
  278      1       8.93457136       22.89787855       10.55841087
  279      1      20.26218916       24.79615568       16.37592589
  280      1       9.60350486        9.58490816        7.05663362
  281      1      26.77852076        0.84221633       22.32845150
  282      1       2.00015244        4.97233253        4.26394476
  283      1      20.92826110        1.14087914       26.03079606
  284      1       2.60987536        5.84593769       17.65084136
  285      1      22.79417339        7.69641142       14.83558979
  286      1      15.50076779       12.59163247       11.18296625
  287      1       4.38075970       14.70207752       24.25456411
  288      1       1.44337343       10.30544472       24.30790136
  289      1      21.44516117       25.38223818       21.61246166
  290      1      10.38992032       11.23908567       21.56968022
  291      1       4.09186763        4.09242171       16.61867299
  292      1       2.89029937       20.63962404       21.72879452
  293      1      23.46626566       25.71668244       27.19650889
  294      1      20.70094893        1.02604617       19.44619886
  295      1       0.10949173       14.08750348       23.01423361
  296      1      17.88344507       17.57002704       21.25088619
  297      1      14.27741785       15.01662110        0.23937977
  298      1       0.55369987        8.44498450       23.32352188
  299      1       4.80997755       27.10950322        0.58550454
  300      1      19.40242605       25.39422210        8.36437572
  301      1      14.64174115       14.63094468        2.48293987
  302      1       7.22900001       11.05930026       25.63991189
  303      1      17.27983185        4.36521339        1.57161950
  304      1      19.96831053        7.16804455       22.62945819
  305      1      16.82180831       23.89376783       15.59964837
  306      1       4.02227699        9.94378069        2.01963219
  307      1       1.54818015       20.31397710        9.49010153
  308      1       9.51122536        0.85012943        7.07974090
  309      1      24.93143652        1.08976281        5.80986434
  310      1      20.17074859       16.97149212       18.22176259
  311      1       0.99443990        3.01067878       27.63337746
  312      1       3.11094339       10.98633570       22.78154345
  313      1      23.80002127       22.18752329       23.00280836
  314      1       1.37968843        1.64981759       18.75815316
  315      1      14.89109269       27.49108296       17.57498581
  316      1      13.24583510       21.44082571        5.42166720
  317      1      25.63240074       18.97627464       11.95542373
  318      1      24.62452682       18.46288669        9.79069097
  319      1       4.26779785       24.74601683       12.38254447
  320      1       7.77386651       24.31577260       13.63715462
  321      1      12.53687917       17.64470203       24.85059620
  322      1       2.01266555        9.36240830        5.53178350
  323      1      20.29630203       13.00617910       12.26736242
  324      1       9.91689856        0.72339945       19.94520839
  325      1      23.94373157       22.63992657        8.01932639
  326      1       8.35482689       26.44639527       12.86398819
  327      1      23.44804607        5.99679982       11.52362600
  328      1      14.78899495        7.66305660        5.21954633
  329      1      21.66678867       22.35111580        7.59749984
  330      1      23.75188009       16.28944873       13.94027384
  331      1       3.78845754        5.18137364       12.56242990
  332      1      22.58867270       18.78268825       21.82423275
  333      1       0.68437122        3.78784105       21.90625716
  334      1      11.00240142        2.23411171       14.27177589
  335      1      26.22708805       21.19898333       11.82227399
  336      1      19.63674276       20.46732877       11.18251926
  337      1      24.85684757        5.18396054       22.61417868
  338      1      19.89129569        4.35850112       11.02441886
  339      1      19.06487010       19.69881971        7.09584186
  340      1       8.78442227       13.05600787       13.39019184
  341      1      11.39470030       10.98903367        1.98082354
  342      1      18.72839459       19.16980360       27.05523146
  343      1      26.90498908       15.85349289       15.41786414
  344      1       3.54390072       25.85998125       23.96658552
  345      1      10.11443582       21.99158851       19.14904822
  346      1      24.08540243       10.92808178        0.85898277
  347      1      13.48689885        5.13298161       25.07594454
  348      1      25.88147875        8.62300578       13.47911981
  349      1      26.22905927        9.59121501        6.93373568
  350      1      18.23932405        1.11398577        7.28041212
  351      1      26.85064794       22.93656388        3.33107822
  352      1       8.10870927        0.33086036       26.42507879
  353      1      12.95700471        2.31314493        8.26308452
  354      1      19.75426560        8.98580335       25.47328998
  355      1      16.10969344       14.89849688       24.34938267
  356      1      19.72530025       12.44908277       10.01522799
  357      1      18.20450810       13.27244291       19.19250659
  358      1      22.63550579       18.80808959       25.63675903
  359      1      25.85462222       25.29488639        9.97244216
  360      1      15.16458679        4.38660512        0.64656386
  361      1      12.38753528        3.04376488       25.69576510
  362      1      10.16816316       20.42356721        2.72001190
  363      1      26.13346754       24.74442684       12.12774553
  364      1      16.19523956        1.15497403        2.09181572
  365      1      19.00394860        0.78385886       17.81481005
  366      1       6.62112008        6.74825862       24.02925957
  367      1       6.65472982       15.71200812       21.69571191
  368      1       8.40420533       25.90889180       27.56842820
  369      1      15.57034085       20.08824508       18.02011303
  370      1      10.85526212       27.50051996       23.69706562
  371      1      26.96350664        3.74319219        1.47192512
  372      1      23.17007993        5.74126595       17.99426695
  373      1      14.32528157       12.57265894        3.50420435
  374      1      16.79872333       15.44099314        2.98819084
  375      1       6.22469741       14.50152777       19.71964444
  376      1      26.13575388       20.50142566        6.43899376
  377      1       9.04467364        8.36294859       19.78927914
  378      1       3.95092145        7.33847062       13.58853995
  379      1      27.03793586       12.81119789        9.50497341
  380      1      24.74122426       19.95138521       18.42289327
  381      1      12.73910442       22.28315040        9.45916241
  382      1      13.04686153       23.69356738       21.27618202
  383      1      23.91531052       10.49885907        9.80271058
  384      1      18.11791978       11.37243004       20.78978569
  385      1      14.30983968       20.60543869       16.08223831
  386      1       5.84367883       19.71340506        6.20353623
  387      1      27.06733731       19.78044143        0.83460208
  388      1       4.15683495       17.76782864       19.87105630
  389      1       1.05764226       10.92764040       17.33723735
  390      1      11.12276654       22.30703641        1.71818166
  391      1       1.60207031       17.63655887       23.50888253
  392      1       3.77460658       27.28473697        7.13846626
  393      1      26.44598492       21.53032175       15.36386365
  394      1       7.37566147        0.42699831       14.26408733
  395      1       4.59249829       27.23070603        3.04943869
  396      1       5.50483990        3.49989139       13.09464740
  397      1       5.62119687       15.33797615        7.30877612
  398      1       6.31939596        0.04531855       20.90455930
  399      1      27.07747001       17.86009384       16.58022413
  400      1       9.02812594       18.38927745       10.89686737
  401      1       7.90387398        1.28483669       10.23274042
  402      1       1.79822189        4.16056079       13.19911783
  403      1       5.80664393        3.49571611        4.10884537
  404      1       7.41018010        8.25651539       13.02259730
  405      1       1.03870243        7.47186404        8.68173261
  406      1       2.71639571        9.67152142       16.10534275
  407      1      25.28416158        2.22662992       10.43981262
  408      1      19.31533022       26.72095832       10.36637217
  409      1      18.40574338        2.68034529       10.48940065
  410      1       7.56382167        5.38257840       17.90195620
  411      1      18.32599670       17.20303951       25.82390231
  412      1      11.86191771       10.88108441       18.34893363
  413      1       6.18253278       25.21486157        0.24118782
  414      1      14.51167019       21.28973081       23.84096074
  415      1       3.08889840       15.62815050       12.24418027
  416      1      12.20204847       14.20669483       27.11646677
  417      1      21.63760638        1.52615273       10.68520664
  418      1      22.91641726        0.00992461       12.94428678
  419      1      10.69602185       26.41603492       12.68482474
  420      1       6.60040328       10.53611263       21.76449419
  421      1       0.59567569       12.44616547        4.11571736
  422      1       7.57623826        9.88429503        3.77887759
  423      1      19.92327204       23.24392761        8.94779600
  424      1      20.70846375        8.45316248       10.68220249
  425      1      22.41499978       24.13318293        0.98966888
  426      1      17.26333235       20.75379546       26.00488889
  427      1      12.76748367       18.42876692       11.17006661
  428      1       3.37651469       25.05442074       14.76555955
  429      1       5.79627158       13.02688388        4.02829887
  430      1       7.38169889       13.02418092       26.93649533
  431      1      24.48975167       22.82292984       14.82555459
  432      1      22.71984808       22.92048834       11.29650747
  433      1       3.57312738        3.32159467       24.40485290
  434      1       0.61941438       22.80183919       16.42551766
  435      1      21.12435993       25.78131443        6.72801308
  436      1       8.44839890       24.93662304        9.40197732
  437      1      15.99809681       23.77985739        8.81763329
  438      1      12.98824069       25.39598464        1.11352135
  439      1      20.72337737       13.12382592       16.68107562
  440      1       3.83347520        7.92910159       17.15050494
  441      1      17.26193873       25.17044095        7.42992996
  442      1      17.27065229       15.75837848        8.70163493
  443      1      10.16827650        5.09475698        0.85254881
  444      1      15.32324467       14.90398578       11.92928820
  445      1      11.01379402        9.07808094       12.54798607
  446      1       4.38958143       22.32895619        3.82281084
  447      1       4.87228190        7.04293468        6.02465411
  448      1      24.89188112       19.00950272       24.81502774
  449      1       6.51029084       27.43487328        4.40508041
  450      1       9.41447803       27.38619624       17.74048312
  451      1      27.59280615       26.72974949        4.06637614
  452      1      19.62127150        9.32694043        0.07351737
  453      1       1.96742653       22.89840501        0.56351231
  454      1       5.93252581       10.84368187       19.49887886
  455      1       0.58916547       21.64708751        2.02271796
  456      1      17.32230628       11.95887608       17.34449683
  457      1      11.19431060       24.28485175       13.71438124
  458      1       4.61848594       15.24930894        0.68204859
  459      1      22.04147562        3.98960449       12.18450971
  460      1      20.14009934        5.58559154       15.39035345
  461      1      19.79177466       12.86291693        1.86573967
  462      1       4.38114025       11.45957014       15.75263112
  463      1       5.28289550       27.52554494       24.46834665
  464      1      13.21849957       15.08668202       13.14392125
  465      1      23.14082380       22.78360185       25.13726779
  466      1      17.09157002        9.27238662       11.95876071
  467      1      24.61694104       20.20265961        4.67904626
  468      1      21.86514793        2.65299953       22.69193136
  469      1       7.77536128       16.40013748        7.50540946
  470      1       5.33765599        6.88915954        3.70762083
  471      1      25.62198475       11.67342933       25.05868210
  472      1      22.88841412        1.64579482        4.85684234
  473      1      22.49611445       11.99468852       15.41445592
  474      1      27.58357649       21.94495808       22.98747380
  475      1      11.44327126       21.26979474       25.88322701
  476      1      15.72945096        2.27356190       20.25370652
  477      1       7.74022073       11.43984984       18.13804564
  478      1      22.78810264       12.30769243       27.21751826
  479      1      11.89472421        1.30594061        4.53146376
  480      1      12.22366712        4.60586783        8.38446868
  481      1      22.35096790       19.73279212        5.13114038
  482      1      14.57113866       23.00617363       15.50669390
  483      1       6.71275166       14.44269600       23.61877403
  484      1      17.87651884       19.14008628        1.62843712
  485      1      18.68206639       14.95777079        1.72565004
  486      1      24.67498429       25.00806138        6.02808666
  487      1      19.44354517       22.24310606        2.84048749
  488      1      16.12398427        4.83192940       11.66611669
  489      1       9.29838757       17.14012046       16.82113275
  490      1      12.21241034       15.78893017       15.22547315
  491      1      11.93822971       20.33196542       16.43894936
  492      1      27.22118400       15.75520536       13.00858353
  493      1       3.16723902       22.96033805       15.72932775
  494      1      19.11750473       26.11932360        2.10834516
  495      1      17.89775586       22.74367461       18.65605193
  496      1       0.05143424       16.94328305        8.45822170
  497      1      23.50545653       25.12777823       24.94685345
  498      1      20.18820832       27.12346735       24.65197838
  499      1      24.64705246       15.47139384       15.89303125
  500      1      18.81720409       13.33697356        6.30285867
  501      1       6.39973732       22.02088528        2.39644321
  502      1      18.16292055       14.04106616       23.45711889
  503      1       1.61338846       19.40385225       13.64203977
  504      1      22.37343189        0.37526392       15.26500464
  505      1      17.89456114        5.39723054       14.73692382
  506      1      16.04510640       10.05910273       18.00358590
  507      1      22.04553968        6.74751876        9.73962205
  508      1      12.76487583        9.21800255        2.75039137
  509      1      13.80530587       27.57917369       13.57297457
  510      1       3.00830535       15.61701543        4.16735505
  511      1       2.50337620       16.43656842       16.14101761
  512      1       8.66686823        8.09155322       23.83004251
  513      1       7.91955864       16.84758480       26.23758849
  514      1      17.87551727       26.60465758       22.13885437
  515      1      12.78041753        4.82087294        6.13553580
  516      1      13.20274903       23.72994222        4.66352829
  517      1       7.10497018       20.18973526       22.98342759
  518      1       1.36162586       10.17577721       12.54536150
  519      1       9.98084205        5.52300493       18.06798159
  520      1      18.63604974       25.43439983       25.40226520
  521      1      23.19736700        1.99283996        9.04847802
  522      1       3.94273845        5.51314052       10.18809812
  523      1       3.11190540       15.92802722       22.69037044
  524      1       4.10158603       12.23635187       13.52742897
  525      1      16.34260323       17.26780154       24.61081126
  526      1       2.54353413       26.58862386        0.09838218
  527      1      12.88939272       25.98993927       20.58939513
  528      1      20.83424119       18.38453792       14.37078344
  529      1       3.92648721       21.83945418       27.17291756
  530      1       4.68246040        3.36188643        6.18611070
  531      1      14.80180435        8.22917589       12.20763612
  532      1       7.31164429        7.76442040       18.15517768
  533      1       6.50967514        3.34106619        7.59230513
  534      1       4.87621209        8.18966894       24.38550906
  535      1      14.26314432        3.46200025       16.82330117
  536      1       3.28703427        3.69906535        0.51115780
  537      1      23.76384611        6.78751592        3.09208774
  538      1      18.96425444       21.19329967       17.07582089
  539      1      20.48506027       23.08260639       14.60543625
  540      1      23.72364317        3.73931464       19.35064934
  541      1       1.21144137       23.83722347       20.12874573
  542      1      12.91704251       23.00943544       23.58486333
  543      1      13.40928778       23.59800436       13.41345556
  544      1       2.63222929       25.66890416       20.00178795
  545      1       3.05547336        1.60759591        6.11404570
  546      1      24.68715471       11.71147196       22.85711717
  547      1       7.97643677       18.91971869       19.89774560
  548      1      10.91950956       19.26327182        9.91976054
  549      1       4.68695158       22.20275518       24.86796921
  550      1       3.36072912       12.63812690        6.72732009
  551      1      23.85850738        2.38797250       12.65921024
  552      1      17.62838335        6.37804595        2.54136549
  553      1      18.54885609        3.14053618       17.73336305
  554      1      17.57314789        1.83023295       25.19739708
  555      1       6.78665193        3.23409688       22.24540591
  556      1      19.00336149        1.65189885       27.30203920
  557      1      17.79155781        7.94614795        0.80594510
  558      1      23.14700847       23.27272181       19.28174315
  559      1      22.84020610       25.34103226        2.85224840
  560      1       0.11966761        7.41225171       20.12795936
  561      1       7.81009603        4.81086427        1.45686557
  562      1       0.68043056       23.73010841       12.62820397
  563      1      20.26836954       16.69837400        2.12734887
  564      1       7.54723148       11.51300169       12.05278045
  565      1      26.85620406       24.28638548        6.73929695
  566      1      26.70969072       13.08244956       19.75389251
  567      1       0.86086817        2.13434117        7.12945870
  568      1      17.38888921        3.26793759        7.21178726
  569      1      27.31220283       24.96245478       16.03161455
  570      1      20.91565761       22.03886806       25.60813308
  571      1      13.39237422       15.17343090        5.94744618
  572      1      17.08576694       20.47804201       13.57925009
  573      1      25.51375244        0.29536347       17.42957601
  574      1       2.61402259       26.98930428       22.10263704
  575      1       8.91142308       18.81184130       25.50648786
  576      1       6.28860161       24.45221507        2.40108561
  577      1      13.12003466        7.47385091       17.73873255
  578      1      14.60343945       19.63872967       21.85437243
  579      1      15.70812168        8.53455374       21.97722520
  580      1      27.15521273       21.58684997        9.69672254
  581      1      21.25244785       18.75770904       23.74456145
  582      1      23.30355844       23.80705042        4.53267069
  583      1       6.67959077       21.07450886       20.76723975
  584      1      24.42836074       15.96212312       10.11220051
  585      1      20.64635609        6.87506490       24.87227155
  586      1      14.64939894        2.01423953        9.77840208
  587      1      25.86527142        5.79998391       11.16710720
  588      1      13.55711383        9.79728056       15.14606060
  589      1      17.21171447        4.75943095       22.97382689
  590      1      21.40129125       20.14779390        7.25319768
  591      1      18.68140164       16.82525761       12.06029761
  592      1       4.90101140       14.39322717       12.98472195
  593      1      11.02556460       14.72816115        3.06125635
  594      1      20.90849395       20.31567034        3.23575300
  595      1      17.85580178       27.65316757        0.74020171
  596      1      25.40034429       26.83061728        4.65693123
  597      1       0.20548680        4.96740776       17.51739068
  598      1       7.41027277        4.36020533       14.11724548
  599      1       8.91659992        4.42993906       25.08679623
  600      1       7.49308339       14.22320830        2.98693601
  601      1      11.74441610       15.88469840        7.72704824
  602      1      12.05077098        1.88604939       23.65766935
  603      1      17.57815412        4.21337956       25.20579038
  604      1      13.73163355        6.26852488        9.22311022
  605      1       3.54368071       12.24286496       26.49662838
  606      1      17.59460110        1.63852872       12.39603022
  607      1      27.20286869       17.12135801       18.87521453
  608      1      27.64842962       26.67916539       25.07569727
  609      1      16.24281857        6.83549057       15.76924380
  610      1      25.86045715       26.43385153       21.71558168
  611      1       4.49350095       12.72114191       19.41789791
  612      1      19.49591182        9.17066419       16.41712486
  613      1      25.40254831       23.30867334       20.13372773
  614      1      11.55165547       26.55492176        4.79975082
  615      1      17.99841842       10.44054277        9.96876021
  616      1       2.07930126       19.46566842       25.12041983
  617      1      13.66752614       26.14479162       10.18690959
  618      1       9.03652360       20.82463885        7.34255354
  619      1       1.98594691       19.94793936        7.18076264
  620      1      10.74481424       19.87183188       22.18767953
  621      1       6.89143884       22.81357110       16.95106603
  622      1      11.93759472        9.35808256        7.05806696
  623      1       5.79439651        0.90831354       26.62758702
  624      1      16.85280596       15.92066589       13.34482236
  625      1      15.18945548       11.36672200        7.13553904
  626      1      22.65005055        3.90864461        7.81488924
  627      1       5.83222702        4.25005718        9.61742957
  628      1      15.99010708       16.65941905       20.22775962
  629      1      10.66687302       22.03548262       23.40602291
  630      1      16.15112832       17.66542840        2.22749753
  631      1      20.61531366       13.57911093       19.10086653
  632      1      24.37969201        6.39946646        0.75396252
  633      1       0.90726214       14.66499624       16.68114172
  634      1       1.28835180        2.84767047       24.03313839
  635      1      18.26723404       22.10382055       14.98771654
  636      1      16.92377463       26.45511001       26.66651195
  637      1       5.67689130       17.66605431       25.98465656
  638      1       9.04820339        8.84529051        0.14084018
  639      1      23.62167682       22.09764756        1.17209822
  640      1      27.51247427        3.93104236       25.59302141
  641      1      11.03188208        1.21562559        8.93413690
  642      1       9.13900644       15.09889688        4.42803898
  643      1       4.63202112       20.11808877       20.14294251
  644      1       1.36435880        2.69114384       11.16902394
  645      1      14.51032279       27.12375234       21.88501743
  646      1      19.32216593       13.75081992       25.54688537
  647      1      21.32785358       15.77176016       27.46496919
  648      1      12.32051438       15.22636665       24.87179455
  649      1      21.53374321       18.26539807       16.74566878
  650      1      20.10977863        6.54799093       19.08909149
  651      1      26.90415073        9.66524981       11.70732645
  652      1       5.23432512       14.02132106        9.27386145
  653      1      25.29868612       12.03632128       18.19723221
  654      1       8.07860044       20.89757530        3.61811231
  655      1       2.00496617       12.81542161        2.26971564
  656      1      11.86343512       13.00426219        5.92396535
  657      1       6.64402223       16.06902351        1.79819039
  658      1      26.21874463       20.38042048       26.29046320
  659      1       7.88883663       22.66532041       19.06021417
  660      1      16.25735241        7.56239963       26.68839648
  661      1      19.39060607       18.52211517        3.32177904
  662      1       0.93445447       16.26056336        0.73489752
  663      1       1.17168441       25.35313189       14.21163930
  664      1      17.13161410        9.79505109        2.43114755
  665      1      14.99655662       14.54208221       17.58767935
  666      1      11.98096622       12.60627857        3.58330644
  667      1      13.07061579       19.80252431       12.98978765
  668      1      21.15170715        9.09072965       22.10569897
  669      1      20.74167936        4.97692653        8.85930503
  670      1      24.07490127        7.55240996       19.21178495
  671      1       8.50487954       11.69570933        6.80693836
  672      1       7.56738639       13.62461615       15.28268171
  673      1      16.41000260       27.30013146        7.48638113
  674      1       1.54481319       12.83179086       10.24834969
  675      1      25.67827218       11.55315640       10.92970871
  676      1       8.24024823        4.84164651        7.09072995
  677      1      20.41945946        4.74715767       17.60382290
  678      1      10.43769636       18.61816520        0.94292270
  679      1       1.94943648       22.77008219       22.07308925
  680      1       3.38426387        2.45853002       19.75972123
  681      1      12.45571528        8.11660772        4.95761830
  682      1      19.93987759        1.97082230       21.61883877
  683      1      15.33906401       23.83882217        3.76586148
  684      1      23.29597257        9.74715996       15.91643675
  685      1       2.27066585        8.83247231        3.19557614
  686      1      22.44261126       10.16936837        2.58376159
  687      1       4.22536935       12.31620502       24.28908438
  688      1      20.72923323       26.29222180       12.37859417
  689      1       5.28335385        8.60361065       18.87500846
  690      1      16.92281636       15.39937328       18.51290523
  691      1      20.94182495       10.23722478        7.22448253
  692      1      15.63362305        5.29809868       26.20292709
  693      1      18.96328751       17.78899559        5.72250541
  694      1       1.91331317       25.52188588       25.70124884
  695      1      21.36421202        6.53364536        2.16742990
  696      1      23.53699160        8.16685205       27.12951511
  697      1      19.04296105        0.67655623        5.15011768
  698      1      20.96415615       11.78188048        3.65769464
  699      1      23.50075627        8.31791434       21.64371238
  700      1      21.17666536       27.60049257        5.15128586
  701      1      25.03899052        8.74972454        8.74558813
  702      1      10.73375252       23.10774775       21.05515081
  703      1      10.51057935        6.74519431       12.07814653
  704      1      22.31153084       21.65789369       15.02233065
  705      1      19.28132988       15.84594226       22.05750156
  706      1       0.24136904        3.12955813        3.59432021
  707      1      10.78969665       26.76092354       21.40835574
  708      1      15.11907227       19.34235146       14.33375302
  709      1      16.43462995       27.61119264       20.60703341
  710      1      23.33006321        4.46533394       25.61725652
  711      1      14.51366976       17.38190155        0.42679575
  712      1       8.71219849        0.56714523       24.14123025
  713      1       5.46038162       17.70385103       14.59185382
  714      1       2.44405017        6.49300525       19.92278772
  715      1      16.30453490       20.08275536        9.81368487
  716      1      10.18918972       19.02348976        6.25703290
  717      1       1.34601701       27.52916375       13.40608345
  718      1      11.31973658       10.70196334       25.48426788
  719      1      25.41949734       19.42919291       16.06335482
  720      1       2.00225707       20.01576720       18.03510759
  721      1      19.16179881        2.61300785        3.81485864
  722      1       3.70213799       10.10808658       27.33891079
  723      1      24.03956852        4.81933669        4.30840420
  724      1      12.26066469       11.79247951       27.45474987
  725      1      10.09264697       13.37879586       20.26345050
  726      1      23.32423803        8.84426062        4.30124212
  727      1      13.74084216        1.92686285        5.99006665
  728      1      23.41626416        7.29452906        7.92778096
  729      1       0.12976440       16.05984420       24.36258061
  730      1      26.73196149        2.70401576        5.63918902
  731      1       0.42795112       21.22800524       25.14816957
  732      1      26.29916309        4.40768710       19.31368140
  733      1       7.25030677       17.93294927       17.85249523
  734      1       1.44888682       11.57457947        6.01085807
  735      1      19.22779445        2.14421319       14.22203231
  736      1       7.72765736        1.85467273       20.41114764
  737      1      20.91864077       14.32980913        6.45615058
  738      1      12.79113793       11.53159009        7.50336101
  739      1      13.79553733       18.70158555        7.76909735
  740      1      23.17037174       14.50205436        2.86199684
  741      1      19.14643256       11.48427432       15.96830313
  742      1       8.24668264       13.61955876       18.82402105
  743      1      22.94073831        6.79106522       25.25532821
  744      1       7.07027424       21.81461142       24.67224560
  745      1       3.35492719       21.34142045       10.64878879
  746      1       0.97965862        0.50639742       23.51507732
  747      1       5.97384629        8.78316336        2.48723924
  748      1       5.72272521       17.28387964       10.78790317
  749      1      10.02149600       26.23907681        6.55000052
  750      1      18.47690309       19.40727605        9.39031894
  751      1       9.23809921        1.76092812        0.10230508
  752      1      22.67002064        2.63176425       15.76432230
  753      1       3.78523194       20.29344714       23.85346230
  754      1      15.76464084        3.34793154        5.44688716
  755      1       7.12643877       18.88282839        4.40017166
  756      1      23.13365607       17.05400425       27.11709661
  757      1       3.79312692       20.22614949       12.71422850
  758      1      25.61753955        9.63460746       26.45773627
  759      1       8.79022150        8.95280861        9.36590083
  760      1       0.10372169       17.98162144       12.27307327
  761      1       3.15955183       17.19259429       13.97438369
  762      1      11.04348452       19.65365788       14.37667045
  763      1       7.50553706        1.77298424        3.72940996
  764      1       2.58726574       15.05730329        1.96051452
  765      1       3.73537468       17.77034442        4.12882014
  766      1      19.16924474       18.70940715       19.58463179
  767      1      14.60055831       18.11847068       25.87126627
  768      1      18.61355032       23.02749579       20.86887266
  769      1      17.07572906       16.48802111        6.50483185
  770      1      20.71297097        8.83727716       18.44031479
  771      1      24.40079299       13.15448026       16.26898012
  772      1       8.70445585       23.40669484       24.15901248
  773      1      14.02862708        1.92554097       18.63543562
  774      1      20.14007260        2.69169793        1.55571598
  775      1      10.45548394        7.19176580        9.74349364
  776      1      20.61935005        5.54911688       21.14329524
  777      1      15.61129399        2.87852313       12.91596474
  778      1      13.26287217       11.80067643       11.23525845
  779      1      19.43075459        9.07780120        8.74520669
  780      1       7.42099798       26.91679600       16.24523092
  781      1       4.77546744        7.68305702       10.03165534
  782      1      24.56292313       26.82620616        2.52246189
  783      1       3.65217518        6.00629353        0.48401247
  784      1       3.72926882        5.13726833       22.98984858
  785      1      13.66755444       23.58284600       17.64247795
  786      1       7.09359859        6.90485370        6.81103803
  787      1       9.66731099       13.60335532        6.19395587
  788      1       4.96879692        1.94596589       23.25829787
  789      1      27.25904804        2.15613579       20.28900114
  790      1      22.07901571       15.37724666       10.02924003
  791      1      21.49200091       13.48883136        8.65749402
  792      1       6.50127119       12.02060832       23.63040113
  793      1      23.94527060       12.20907902        6.04912444
  794      1       6.14051973       26.18487461       19.21976194
  795      1      27.50479571       25.07175105        2.44010015
  796      1      25.01413162       15.17751689       12.28767422
  797      1      25.73011902       13.66408304       21.93164585
  798      1      15.15256441       25.41443759        2.14466630
  799      1       4.48397035       14.27209112        5.43225600
  800      1      10.11483885        6.22910840       24.03723674
  801      1       9.60224828        7.28414671        3.66540740
  802      1      26.45892077        6.49766688       16.42014058
  803      1      20.09640673       20.86463668       23.67926783
  804      1       9.50610178       22.93298905       12.90805897
  805      1      21.18674090       23.61934752        5.73096468
  806      1       1.81343226        9.23743491       26.47546903
  807      1      10.74758717        3.40629242       17.70717517
  808      1      21.08397002        3.69816363       14.31847298
  809      1      21.01947463       20.08967051       26.94558300
  810      1      27.56459411        6.27624019        4.95419121
  811      1       8.53508529       17.03711206       21.51211875
  812      1      15.89878080        5.95949409        8.25438943
  813      1      16.49953331       11.81256431       26.82204093
  814      1       8.33191339       14.70360056       25.27237461
  815      1       7.61613282       24.68880969       22.52882833
  816      1      26.42264488        7.87888143       24.83961775
  817      1      14.51272288       10.93192889        0.13087054
  818      1      11.66523451        3.03766467       12.17294474
  819      1      10.86433028       12.37317288       14.45311026
  820      1       1.67268578       18.21510730       19.56014921
  821      1      13.80416086       21.05167783        7.66291747
  822      1       0.75883555       11.33476127       19.85487518
  823      1       0.74496973        3.61896074        9.01636329
  824      1      10.26779701       14.70967731        0.86442495
  825      1      27.36424450       23.87471269        8.96473335
  826      1       6.16758023        5.22055025       15.95426384
  827      1       0.91918582        0.93047330        2.98620711
  828      1       5.90553624        5.63037674       22.09283087
  829      1       8.81848397        9.61328242       11.73230367
  830      1      26.62634387       10.92529917        3.45516811
  831      1      19.58202151       11.24007816        5.49442495
  832      1       2.19348319        5.39749348        8.53818844
  833      1      15.47912864        0.04405025       15.26199395
  834      1       4.14966113        0.92902197       21.35978397
  835      1      25.85946551       12.27252823        1.69063551
  836      1       8.39013934       24.64902152        5.71008789
  837      1       2.66974965        4.44513935       21.01048130
  838      1       8.05171268       24.59099782       15.90705521
  839      1      22.04088258       26.71992312       19.77441040
  840      1      22.26512458       23.20130253       21.46104016
  841      1      10.32619853       15.37290066       21.61499367
  842      1       5.24394781       18.83850956        0.40860011
  843      1      12.28146494       10.18474953       20.47278440
  844      1      24.97053766       15.67368022       26.60408819
  845      1      13.30039277       24.81936908       24.93137658
  846      1       2.21881485        0.50777001       11.20961045
  847      1      24.33753525       15.51745065       22.74862221
  848      1       5.89756359       23.19463538       12.80142052
  849      1      19.14442582        7.94813161       12.47382241
  850      1      17.50531504       21.44950512        1.78963849
  851      1      15.65787459        2.43253108       15.23051156
  852      1      16.71279533       10.69015969       24.66870422
  853      1      15.14589571       13.29385763        5.63950473
  854      1      11.67627202        2.34784529       19.62160124
  855      1      11.46847233       22.55799273       17.28282462
  856      1       1.90679989        8.47120443       14.14141951
  857      1      23.22402365        0.78638158       22.86197761
  858      1       6.87839426       21.04201651       15.41861816
  859      1       9.23527012        4.38561690        5.09673654
  860      1      10.47859733       24.36597662       15.97577157
  861      1       3.31608692        5.24244544        6.36498873
  862      1      14.27812224        1.50189072       23.21616334
  863      1      20.21824474       10.23824113       20.29624622
  864      1      18.54129036       12.37874321       13.77746349
  865      1      27.23799380       26.34165601       17.89649684
  866      1       6.77326003        8.20687968        0.32529816
  867      1      11.24580400        5.64037001        4.48625236
  868      1      22.77373765        0.30968790       27.21763179
  869      1      23.62885704       17.09831504       17.26045484
  870      1      20.99005188        4.70169669        0.60372070
  871      1       5.24382170        8.60262724       12.11933359
  872      1      25.02470037       10.06357147       21.29652809
  873      1      13.93678388       16.40693484       16.66815611
  874      1       3.40912371       17.02764241       10.19952217
  875      1       4.41930827       15.24323989       16.73409811
  876      1      21.83596932       13.80361933        0.98840692
  877      1       2.97018235        0.83942652       14.82180658
  878      1       3.12245904        6.60192859        2.79458219
  879      1      26.11591206       27.62676948        9.30050764
  880      1       6.78251811       11.31713590       15.97073736
  881      1      15.08266396       18.44409529        4.20207515
  882      1      22.96027642        9.28141595       18.17553243
  883      1      13.85030431        5.84729007        1.90029769
  884      1       5.25872905       26.28132411       10.84324575
  885      1       2.73993668        7.05286766       24.06802979
  886      1       0.38424865       27.64557808        7.89827401
  887      1       1.94111976       24.53595893        9.17778636
  888      1      18.80556345       17.16630451        9.74707776
  889      1      22.45208198       16.68197790        3.02236390
  890      1       1.51046714       15.53249705       26.28004356
  891      1      12.29151191       16.62522387       21.01313546
  892      1      13.62839766       21.84083758       11.81275871
  893      1      25.92879353       25.77230263        0.61465804
  894      1      12.18941379       27.20740370       27.42068346
  895      1       2.84530570       13.83048499        8.65979181
  896      1      19.46612513       26.24642624       14.52624946
  897      1       2.95055551        8.83973632        9.06524453
  898      1      22.84359148        4.41823384       21.45604326
  899      1      25.17695790       26.56449973       13.36917457
  900      1      17.53505220        7.23327690       22.94242542
  901      1      19.23189589       22.80315901       11.10764903
  902      1      17.10580281       25.94661032       14.48927106
  903      1      26.69099899        5.99924980        0.92154990
  904      1      17.77447291       14.35588066       14.77775100
  905      1      14.24329984        8.76210092       27.03449829
  906      1      17.13692601       26.92018730       18.36930532
  907      1      23.95632679       27.60531319       20.79355426
  908      1       0.62436489        2.80053310       16.75128781
  909      1      11.32002628       26.47784602       16.65123917
  910      1       9.63307385       26.12101547        2.10823403
  911      1      26.75627019        7.83086347       10.15092685
  912      1       6.03250060        2.47542994       10.94629603
  913      1      20.40001429        7.82159657       14.65755917
  914      1      22.10071721       26.46726645       23.57782729
  915      1       6.65509723       11.36723673        5.39914642
  916      1      24.61964529       22.18506426        3.32952072
  917      1      22.22407638       20.21246025        1.30005432
  918      1      26.51656611       10.08080057       17.37054473
  919      1       5.36725750        7.34901496       15.49800663
  920      1      11.31031729       12.10131138       23.55783538
  921      1       8.93541557       20.85855375       13.96368614
  922      1      13.57419646        5.23688874       22.61696968
  923      1      17.52245395        8.51785017       24.95712012
  924      1      17.29371112       24.51847515        5.14932319
  925      1      26.11324436       15.00540431        8.66933960
  926      1       5.74681608       18.79603081       12.55473516
  927      1      11.66630398       27.63838760       14.48634375
  928      1      16.42432376       12.00277810        9.07095973
  929      1      13.67351737        1.27680592       26.75046095
  930      1      17.75983421       19.28337523       17.69241615
  931      1      19.63629981        1.09843848        9.33902708
  932      1       3.52249270       13.09660854       17.26577806
  933      1      20.02118891        4.41490931        5.04492993
  934      1       2.24064455       26.90418873        9.10478200
  935      1      20.99638500       15.72454337       20.18090576
  936      1      15.44573184        7.31671623        3.07330828
  937      1      14.82718148       10.50349178        2.42243665
  938      1      22.40086668       11.95559348       12.95996917
  939      1      14.72276535       11.76975720       14.45921329
  940      1       8.16433413       22.22400112        5.59043983
  941      1      15.79220344       17.20235998       15.18965405
  942      1       5.73170377       21.99636319        5.77805888
  943      1      12.63131365        7.78968498       19.98328909
  944      1      12.27199178        2.19025724        2.38034126
  945      1      26.09793735        4.24549113        9.46030330
  946      1      15.46258383        0.52420453       25.32446195
  947      1      12.48038420        8.25549642        9.15076863
  948      1      15.55899420       22.30551737       18.75272257
  949      1      21.40588555        3.23412484       24.95963546
  950      1      25.28641935       20.71861966        8.55927787
  951      1      10.41700213       21.54871603        9.26751255
  952      1       8.68815430        9.49403887       21.82877474
  953      1      18.00146428        7.48285858        7.46494507
  954      1       9.97569489        2.74388547       10.35693273
  955      1      23.67760916        8.02863245       12.76216345
  956      1      21.03765358       15.19182364       25.18915503
  957      1      13.47334988       21.71729365       27.01979504
  958      1      13.63612583       24.43172217        8.60729195
  959      1      15.17130376       15.96243673        9.83028031
  960      1       9.62903079       13.45329252        9.80919881
  961      1      21.04206243       17.11139957        8.90056980
  962      1      26.92587399        2.37637528       12.23470605
  963      1       6.12150305       27.14139484        6.83398172
  964      1       8.65787461       14.65129992       11.66445705
  965      1       8.02154233       20.89399459       26.58251613
  966      1       7.38588839        8.91261162       15.45488588
  967      1      18.33281188       11.27858733        0.76969647
  968      1       4.53252771        7.48878583       20.75555731
  969      1      11.76621884       13.19690660       18.55771479
  970      1      26.36093356       21.25821691       19.55020136
  971      1       0.32582381        8.06772244        6.48798791
  972      1      18.32477490       11.68062348       23.13100213
  973      1       4.62220866       22.94086513       17.63891244
  974      1      11.23844418       10.03117344       14.67098683
  975      1      25.12452163        1.50404880       24.06080394
  976      1      20.85896399       23.90756976       12.41810648
  977      1      25.90507789       12.29862445       14.72546971
  978      1      17.17839988       27.23558636       11.18829396
  979      1       0.97461179        0.70318296        0.60158135
  980      1      14.17355171       11.59772798       20.74701454
  981      1      23.23412865       25.90554483        7.69514815
  982      1      15.18025763        3.46967349       22.27569397
  983      1      24.22331252       13.48364830       25.84167967
  984      1      12.86101010       17.41141778       18.70191181
  985      1      25.83225688        4.85432383        5.77219364
  986      1      14.85493352        5.77188597       17.38618393
  987      1      11.57227041       19.87165520        4.57518424
  988      1       3.67955076        3.31683702        2.91063819
  989      1       8.62692867       17.34611140        5.46027801
  990      1      25.77653300       13.61056494        6.52503254
  991      1       3.97043097       23.67762371       23.14732851
  992      1      17.69935662       16.94607888       16.80057021
  993      1      13.31424476       25.50975141        6.28217307
  994      1      22.33311545       13.33320252        4.75185163
  995      1      24.36118159       18.60784941       13.92284826
  996      1      19.25219547       25.26899889       20.88951322
  997      1      12.24469631        5.31921587       12.55875233
  998      1      14.33381520        2.18471462        1.08746656
  999      1      18.02352635        9.64611361        4.72274594
