run_id:  1005
total_energy:   -3031.1705733576564
  1000 atoms
  1 atom types
  0.0   27.664  xlo xhi
  0.0   27.664  ylo yhi
  0.0   27.664  zlo zhi

 Atoms

    0      1       0.03235298       18.74741123        6.77045117
    1      1      14.71486795       18.61227318       19.59458473
    2      1      19.85822171       15.39445732       15.88055478
    3      1      17.41884620        8.38480097       17.13937363
    4      1      12.91638334       12.81803050       13.35916237
    5      1       8.83311258       16.66543622        0.71754521
    6      1      13.86984397       24.00240099       26.97570505
    7      1      24.73557074       22.87602908       12.51401216
    8      1       0.65135733       26.00636886        6.12656024
    9      1      26.76192717       27.54217997       27.08695865
   10      1      26.26491674       24.03917146       26.52917580
   11      1      24.65438106       12.81238992       12.63881743
   12      1      12.03466329       16.23488787       11.52991686
   13      1       8.77285963        2.83728392       23.38763271
   14      1      22.30767335       12.21855449       22.84829942
   15      1      16.02961790       21.61476250        8.00578310
   16      1      22.73014795       17.43089993        5.21492788
   17      1       5.63867890        9.39573498       26.30466533
   18      1      25.00977765       10.28968172        5.06802506
   19      1       8.63967526       12.93730169        1.24597706
   20      1      25.64727358       18.09442157        1.78295727
   21      1       2.97898291       23.63779555        7.22179952
   22      1       4.98240769        2.31154399       17.96851675
   23      1      10.40940940       14.38423282       23.83929503
   24      1       0.37188414       14.87442282       19.08774460
   25      1      27.40353868        9.47920923       21.18578704
   26      1      12.90742843       18.21964779        3.58457760
   27      1      22.34262667       19.10695995        9.28658757
   28      1      17.71665964        3.24608113       15.57739177
   29      1      27.30505040       22.37544317        5.61231673
   30      1       4.80220975       21.73635502       14.26528103
   31      1      16.69103989       18.85814804       22.85345675
   32      1      16.94738564        2.94800633        3.35721738
   33      1       9.81217959       16.62796048       12.28062080
   34      1       8.22353792        6.08370644       12.55439667
   35      1      15.73778755       27.20815033        3.59026255
   36      1      10.63722297        6.60689606       20.11468374
   37      1       7.06663318       26.92715928       23.01847760
   38      1      21.87742389        2.73104979       18.08876952
   39      1      10.72187296        0.54670422        1.29581825
   40      1      10.81145529        7.15924789       27.65758112
   41      1      10.63334236       25.34268696        8.65660007
   42      1       4.49523280        0.64759786       11.51486787
   43      1       8.93295620       18.79629277       23.13912666
   44      1       1.36024436       13.16280302       26.41031624
   45      1      23.69683004       10.97313745       19.50293134
   46      1      14.37301359        7.67312745       14.48726991
   47      1       6.62041963        5.00685011       25.70066978
   48      1      14.98892417       20.39753741       25.90362339
   49      1       9.76730469        4.83829702        8.98643142
   50      1       1.40121721       18.51181497        1.06980548
   51      1       7.37299179        2.41067620        1.30228186
   52      1      24.53157308       19.94774795       22.69991655
   53      1       0.17165929       21.45043512       13.44164394
   54      1       6.88449702       21.89588847       11.07886749
   55      1       4.66167336       24.46417122       19.59154467
   56      1       1.89562070       18.82683224        3.35458435
   57      1       5.74547309       11.74990745        9.30786775
   58      1      27.17937600       11.72829663        7.35984528
   59      1      23.34938745        4.41912387        0.21181977
   60      1       2.38646094        3.04349346       15.25469361
   61      1      18.79508913        0.73808104       23.31390937
   62      1       8.11355429       11.70290137        9.28565396
   63      1       5.42082446       27.56265230       17.39929360
   64      1      20.47262208       21.80066800       21.57386179
   65      1       7.08156696        5.13019884        3.62826565
   66      1      16.10461070       13.20385933       15.98826862
   67      1      24.44402842        7.22243662       23.55406600
   68      1       0.19283775       12.28262433       24.60527333
   69      1       7.16242078        2.99171048       18.44440898
   70      1      10.43238832       17.35735224       14.60074301
   71      1      13.78034076        9.73984088       17.36778604
   72      1      13.30467336       21.12701463        1.53607070
   73      1      24.86305186        3.49615012       14.76242776
   74      1      26.35229131        1.82282655       15.78210877
   75      1       2.66335207       10.67655319       10.64316441
   76      1       2.59200234       23.54925404       11.19913362
   77      1       7.74153037       19.94925206       12.15452705
   78      1       3.85785529       16.83692889        7.79253132
   79      1      23.71507131       26.57439478       16.60628966
   80      1       6.99056386        7.53192008        9.04980216
   81      1      18.81255000        4.01313474       21.37040384
   82      1      11.04309540       18.98987186       26.23149481
   83      1      14.74579006       27.42626452        5.80464153
   84      1       0.73694827       21.96034920       18.57994119
   85      1       5.66765287       17.98484938        2.75309227
   86      1      26.85297795       25.14285341       19.92763026
   87      1       9.60173561       14.97550318        8.01222142
   88      1      25.29006767        3.79367934       24.48127926
   89      1      24.22681809        5.74971755       15.85329416
   90      1      11.76977632        4.51705591        2.43344862
   91      1       0.38646505       12.54812962       15.60790650
   92      1      20.00029815        0.46069980       15.61632763
   93      1      16.13549425       10.28077155       20.33531963
   94      1      22.83139220       14.21868969       24.06835329
   95      1      17.75270966       20.84190898       23.71380537
   96      1      10.14955558       19.78782708       19.78348227
   97      1      12.98486648        9.47405217       11.26198760
   98      1      25.44751859       10.08051701       15.25493776
   99      1      27.53683604        6.23128856       26.29919071
  100      1      22.76255939       11.60217405        8.00712700
  101      1      15.03741436       26.05584218       23.98500016
  102      1       9.00673367       14.69853911       16.85146042
  103      1      18.93048082       22.91129323        5.01237701
  104      1      17.89107986       26.52058831        4.09163538
  105      1       2.91910060       25.45140339        5.80305260
  106      1       9.69824695       10.03220822       18.14001540
  107      1      11.20531076        5.36457298       22.12391097
  108      1      23.78701183        1.43414897        2.60435109
  109      1      16.04940880       24.53704758       27.65006387
  110      1      13.90019114       13.63991994       19.48739743
  111      1       1.78838771       15.69601325        7.48646808
  112      1      11.10536551        6.93747629       16.52621000
  113      1      12.86512721        7.76758587        0.98363682
  114      1      23.72864484       24.40218900        9.51344607
  115      1      17.10065072       14.59705746        5.22474038
  116      1      19.85048333        4.88367969       25.94054561
  117      1       8.65869855        2.38139472       14.72459004
  118      1      18.93514785       19.04993596       12.95606201
  119      1       8.89056622        2.12693244       17.06015209
  120      1      12.55576871        5.89627007       14.82258300
  121      1      18.13741695       15.16642929       27.08398201
  122      1      26.95328789       14.25169359        4.59575051
  123      1       5.84011614       19.23390848       16.47656348
  124      1      14.48055079        6.81325216       21.04178499
  125      1       2.60586208       12.32999607       20.85776614
  126      1      19.63709976        6.30622743        3.73510468
  127      1      11.14240375       13.94101192       16.31131067
  128      1      20.91111212       16.67466321        6.54026244
  129      1      14.97064212       22.23339995       20.93800339
  130      1       5.05106913       11.00372777        7.09265077
  131      1      14.89315387       17.26195244        6.20074488
  132      1      25.04096235       25.13193179       15.29346489
  133      1      16.88364165       22.76283609       22.47224029
  134      1       5.22663861       23.18983287        7.68017511
  135      1       6.07456223       20.99618305        0.34025780
  136      1       9.50543998        2.02017605        4.97842855
  137      1       3.02551568       19.46110541       27.32506821
  138      1       6.29140231       15.01097023       11.20812563
  139      1      12.93238002       15.87777568        3.72460718
  140      1       9.60776137       24.49540092       26.10657284
  141      1      26.82857922        0.62253110       13.78332381
  142      1       9.16244308        9.70027928       25.59860752
  143      1       3.88396143        9.00721865        6.88065150
  144      1      16.96097739       23.50221472       11.03902576
  145      1      21.61516862        8.60224708        1.02097474
  146      1       1.83479422       21.86933453        5.97804969
  147      1      11.43190558       26.90183807       10.26932466
  148      1      13.74177927        1.84403354       11.99528713
  149      1       7.35473281        1.17170209        7.92357426
  150      1       0.39921116       12.14824506        0.60020764
  151      1       0.09802337        9.14519699        2.39948990
  152      1      15.44949680       20.64393253        4.73735964
  153      1       7.80141457       25.62622827        3.65831770
  154      1      14.09430636       14.39857612       23.38778513
  155      1      24.77770411       17.62642085       19.27003735
  156      1       2.08775683       24.89957183        1.71905596
  157      1       8.72624307        8.29773726        5.45521411
  158      1       1.25998258       14.16735762       12.24096805
  159      1       2.12280160        6.90029410       26.37334862
  160      1       4.26709939       20.58030457       17.91065676
  161      1       5.54295597       16.38136815       18.47149005
  162      1       5.05550987        1.12793995       13.79385717
  163      1      27.43921238        7.08436290       14.33432276
  164      1      12.85185253       15.10437772        9.57930535
  165      1      19.43364646       23.59614180       26.70888003
  166      1       5.85942881       15.26830654       14.87876788
  167      1      11.07392839       18.62714258       17.92358680
  168      1      14.69432308       18.30355187        9.85064912
  169      1      26.60983804        7.24084423        3.01814070
  170      1      11.50761195       24.53067233        2.75941319
  171      1      20.64414927       15.35546759       12.03074644
  172      1       7.39047435       17.92658465        9.26900907
  173      1       1.72276720       14.46096478       21.27661534
  174      1      16.30625836        9.23985468        6.31904989
  175      1       2.25620018       21.12536124        3.71942322
  176      1      18.08432379       13.56522649        8.53870236
  177      1      25.74802286       23.32512977       22.60325018
  178      1      11.55132547       18.19907820        7.92349261
  179      1      25.56464297       18.06675045        4.06385363
  180      1       8.27616769       25.22692986       18.99966064
  181      1      22.65092350       21.01762301       18.75055175
  182      1      15.39646886       21.77499001        2.74230364
  183      1      21.13388058       26.88033681        2.93528098
  184      1      24.98029174        1.47127966       19.38980504
  185      1      21.90953781        8.32968051        6.14828776
  186      1       0.84958453       23.35386431       26.25894681
  187      1      12.59248814       18.45017766       22.55139407
  188      1      17.45400653       22.60828486       27.39951923
  189      1      14.90742758        5.56812888        6.08277603
  190      1      14.19949885       25.59532966       12.39295956
  191      1      10.81115961        3.10093475       22.00151903
  192      1      25.75858906       25.27124651       24.08020530
  193      1      21.81167026        0.98781768        1.61387801
  194      1      10.26379072        3.55999638       26.73102391
  195      1      18.06268997       24.75244438       17.50755192
  196      1      21.34658909       20.63550054       16.93150392
  197      1      16.46197754       25.42527264       12.34016273
  198      1       3.39413059       26.88153133       16.44247997
  199      1       1.21202568       18.06597916       10.21833774
  200      1       3.98652778       15.94312148       26.18961237
  201      1      16.02539173        5.81268960       19.39972675
  202      1      21.96752878       20.54663115       11.21077759
  203      1       3.76188959       24.85553773        3.48981575
  204      1      18.28450313        5.69428023       12.33744984
  205      1       9.14530026       10.59168649        1.86188003
  206      1      26.80176147        5.51454223       21.30169683
  207      1      26.23539941        7.90890398       18.30860250
  208      1      26.88186613        4.87494113       13.20143173
  209      1      12.94294768        9.00137715       25.10362204
  210      1       4.69798816        9.28983499       22.34628585
  211      1      24.80691977       22.20568049       26.75700427
  212      1       0.18380031       17.85827960        4.69563858
  213      1      23.21885749       16.71775384       20.98638601
  214      1      13.19383863       25.92913993       18.12712345
  215      1      14.17844723       15.30100577       21.17559030
  216      1      26.26831668       15.96671737        0.99082406
  217      1       4.87439423        3.19435004       26.41538422
  218      1       3.81096033       18.62900825        6.35322789
  219      1      20.48555471       10.71917357       23.79505114
  220      1       9.90801282       22.37210739       27.23234366
  221      1      11.38309471       26.02489858       25.46967203
  222      1       1.66510165       12.29502802       13.61355147
  223      1       9.79446206        8.88510898       16.11232048
  224      1      17.30086506        3.81547056       19.57816879
  225      1      16.63271914       11.40283258       12.95255467
  226      1      25.54492727       14.39184283        2.60261851
  227      1       6.15098806        5.97784327        0.12342319
  228      1      13.66426381       12.08549309       22.98503714
  229      1      26.74154873       20.21122248       21.62746831
  230      1       7.62168130        5.61150821       10.27285255
  231      1      22.42930962       19.85407688       13.49884848
  232      1       4.38780140       12.16231028        2.32857465
  233      1       1.14295282       19.03158526       21.63381241
  234      1      21.36638985       16.16802549       14.06807314
  235      1       1.79012089       27.04625840       18.22741302
  236      1      17.06104362       24.94297959       23.60459020
  237      1      20.06795206       24.02693286        1.28668897
  238      1      14.20943534        6.10778084       11.44387448
  239      1      22.25477204       25.21126154       17.92954608
  240      1      14.67755429        9.98265534       23.67343930
  241      1      19.52323171        7.84595670        5.40232257
  242      1       5.42087811       18.69423913       23.72756528
  243      1      24.85653162        2.74709097        0.90010069
  244      1      12.07791019       12.85090362        9.60277636
  245      1       6.88581483       24.96228360        7.53276854
  246      1      18.99897033        5.07073165        7.12915320
  247      1      12.16196205        3.66860396       15.83529642
  248      1      22.53414539        9.76153622       11.55206052
  249      1       1.37664884       18.80849674       16.10941493
  250      1      16.08155556       14.17293248       26.59691418
  251      1       3.00762524        1.15042847        3.76690235
  252      1       5.17023389       13.10765430        0.25476591
  253      1       5.74703157       23.46941796       21.51791942
  254      1      11.83724807        6.86046555       25.47461744
  255      1       0.99359218       15.75003948        5.22736167
  256      1      24.26569648        0.28212447        7.87819423
  257      1      24.64545092        5.16190912        7.76604843
  258      1      15.46767333       27.57411328        9.58016001
  259      1      23.39064949       18.15473375        1.43637123
  260      1      21.19494414       19.99595010       20.33079912
  261      1      25.55176496       16.70772691       24.55528578
  262      1      24.91327037        1.26637798       26.64285195
  263      1      19.96260513       16.90929917       24.11323333
  264      1      12.82479419       18.76407205        1.40633309
  265      1      17.49016544       21.22234277        6.10849945
  266      1       7.55980627       26.63697883       10.77100602
  267      1       9.36466402       24.98728378       21.04762915
  268      1       6.95538189       19.93424654        8.22269610
  269      1       5.43169037       21.49833157        9.34625870
  270      1      16.36317749        3.66198082        9.44009587
  271      1       4.89835405       10.93095646       11.66669595
  272      1      21.79453790       12.01642411       20.44613198
  273      1      15.99258957       21.49189559       11.68249803
  274      1       0.01997125        9.83229715        0.12433314
  275      1      22.25846023        3.79081004        5.48149380
  276      1      17.79947028        7.29212038       19.15556808
  277      1       4.88039596       17.15480531       21.96912342
  278      1       8.92671572       22.90084209       10.56039162
  279      1      20.26057428       24.80359228       16.37568921
  280      1       9.61768948        9.65214660        7.14465138
  281      1      26.77431193        0.84272610       22.32635036
  282      1       2.00692762        4.97564016        4.26714250
  283      1      20.91787907        1.14648661       26.03194512
  284      1       2.60060280        5.85418738       17.64435179
  285      1      22.80736516        7.59159280       14.78995746
  286      1      15.54043165       12.60353662       11.21692526
  287      1       4.37816460       14.69363068       24.24665763
  288      1       1.44577373       10.29698287       24.30445367
  289      1      21.44047628       25.39121275       21.61610809
  290      1      10.39784606       11.24768422       21.55367138
  291      1       4.08518602        4.10026532       16.61538971
  292      1       2.88589196       20.63492737       21.72600265
  293      1      23.45826828       25.71742084       27.19627783
  294      1      20.68765415        1.02072636       19.45021710
  295      1       0.10060897       14.07616883       23.01449985
  296      1      17.87612586       17.60077586       21.27604653
  297      1      14.28162597       15.04695687        0.23779618
  298      1       0.54753685        8.44248207       23.31573372
  299      1       4.78889184       27.08725159        0.58798633
  300      1      19.38907098       25.40102424        8.35612609
  301      1      14.63745021       14.68676490        2.48933943
  302      1       7.23764876       11.05586955       25.63352695
  303      1      17.23849189        4.38380680        1.57309280
  304      1      19.96132911        7.17051213       22.62894367
  305      1      16.82126484       23.90194713       15.59757576
  306      1       4.08540869        9.91523631        2.03069708
  307      1       1.53927414       20.29865884        9.49552374
  308      1       9.47295622        0.83792482        7.06746475
  309      1      24.91983059        1.08239095        5.80998485
  310      1      20.19194756       17.04246077       18.35581098
  311      1       0.96531175        2.99883033       27.62222512
  312      1       3.10191920       10.98435184       22.76706666
  313      1      23.80211587       22.19501995       23.01012428
  314      1       1.37765854        1.65021768       18.75643991
  315      1      14.88525620       27.50119482       17.57087294
  316      1      13.24045480       21.45653239        5.42572607
  317      1      25.63038592       18.96521326       11.95871922
  318      1      24.62523065       18.45576089        9.79413660
  319      1       4.25928517       24.74270799       12.38245173
  320      1       7.76712102       24.31929289       13.63756040
  321      1      12.53819208       17.65851804       24.84434980
  322      1       2.04155021        9.34276638        5.52788171
  323      1      20.32425678       13.01615599       12.20419698
  324      1       9.91171509        0.73171977       19.93862181
  325      1      23.94215502       22.63708761        8.01635201
  326      1       8.34722122       26.44964701       12.86281051
  327      1      23.45133597        5.96187538       11.48870368
  328      1      14.80458593        7.74780717        5.24719479
  329      1      21.66206248       22.35748977        7.59628168
  330      1      23.73829954       16.29321107       13.93493189
  331      1       3.78334248        5.18614727       12.55735533
  332      1      22.59682804       18.80461207       21.84357571
  333      1       0.67844323        3.79033234       21.90075946
  334      1      10.99745186        2.24358405       14.26652250
  335      1      26.22297049       21.18818778       11.82658202
  336      1      19.63770977       20.48249312       11.17542339
  337      1      24.84864035        5.18199896       22.61092564
  338      1      19.88091726        4.35425467       11.01195723
  339      1      19.06548292       19.71272928        7.09242150
  340      1       8.79609166       13.06050484       13.39593417
  341      1      11.43792410       11.06389840        1.92459075
  342      1      18.72771743       19.18984307       27.06119920
  343      1      26.89253578       15.74813020       15.44319114
  344      1       3.54407587       25.86028575       23.96885733
  345      1      10.11247428       21.99607517       19.14530867
  346      1      24.09041289       10.92431006        0.85814114
  347      1      13.47643162        5.14253643       25.07950563
  348      1      25.87213877        8.62571975       13.46784249
  349      1      26.24620607        9.57735559        6.91735526
  350      1      18.21532621        1.13029353        7.26640956
  351      1      26.84381888       22.92034946        3.33242147
  352      1       8.10299512        0.30564269       26.39439336
  353      1      12.93550530        2.31876721        8.25726392
  354      1      19.74980315        8.98578765       25.47480465
  355      1      16.11345018       14.91984518       24.35027513
  356      1      19.74089294       12.45672282        9.97318609
  357      1      18.26670573       13.30857430       19.20100897
  358      1      22.64313641       18.81958902       25.64817275
  359      1      25.84577335       25.28398553        9.97732561
  360      1      15.11376652        4.40569620        0.66932972
  361      1      12.37039898        3.05327990       25.69128977
  362      1      10.16107719       20.42852461        2.72070076
  363      1      26.13053035       24.73428061       12.13229218
  364      1      16.17639711        1.16768363        2.08635840
  365      1      18.99616025        0.78532550       17.81231009
  366      1       6.61815700        6.75513876       24.01248338
  367      1       6.65700026       15.71516313       21.69681478
  368      1       8.38550176       25.89035570       27.55206712
  369      1      15.57791676       20.10025466       18.02128222
  370      1      10.85016318       27.50623987       23.68397637
  371      1      26.95138231        3.73805098        1.46885039
  372      1      23.16616291        5.71236254       17.98200260
  373      1      14.33297057       12.64977548        3.50513756
  374      1      16.80520132       15.47496268        2.99067791
  375      1       6.22777545       14.51328151       19.71974514
  376      1      26.13238957       20.48511590        6.44206361
  377      1       9.04554339        8.37683333       19.77731077
  378      1       3.94031197        7.34616960       13.58342536
  379      1      27.03812068       12.79783640        9.50431891
  380      1      24.74362727       19.95722662       18.43857871
  381      1      12.73351103       22.29469992        9.46227526
  382      1      13.04283399       23.70269381       21.27132786
  383      1      23.93356669       10.47717840        9.76564377
  384      1      18.13443991       11.40145301       20.78580167
  385      1      14.31666896       20.61201450       16.08326261
  386      1       5.83784971       19.69968504        6.20754323
  387      1      27.07172305       19.76687980        0.83621792
  388      1       4.15530806       17.77087944       19.87314462
  389      1       0.94661651       10.90451797       17.31217555
  390      1      11.11183196       22.31312644        1.71642729
  391      1       1.60035513       17.62715553       23.50533481
  392      1       3.75050396       27.25690816        7.14252270
  393      1      26.44211084       21.51015766       15.37263707
  394      1       7.37059871        0.43270968       14.26144438
  395      1       4.54852012       27.18198229        3.04549415
  396      1       5.49818040        3.50326717       13.09211434
  397      1       5.62657456       15.32742912        7.30828014
  398      1       6.31176219        0.04858357       20.89914675
  399      1      27.05355199       17.79410399       16.58131028
  400      1       9.02814758       18.39636505       10.90354744
  401      1       7.89130788        1.28196380       10.22843188
  402      1       1.79482731        4.15879573       13.19213516
  403      1       5.68194458        3.31932658        4.06844481
  404      1       7.40742715        8.25485287       13.03312096
  405      1       1.05321390        7.46390015        8.67293734
  406      1       2.67331845        9.69582205       16.10987919
  407      1      25.28102863        2.21534779       10.43795892
  408      1      19.30275671       26.72896657       10.35416160
  409      1      18.38999792        2.68485212       10.47419835
  410      1       7.56149286        5.39892798       17.89504911
  411      1      18.32696026       17.22293832       25.83605084
  412      1      11.87775177       10.89752202       18.33563513
  413      1       6.16222161       25.19506687        0.22498460
  414      1      14.50889460       21.30686551       23.83952738
  415      1       3.07707724       15.62016427       12.24338536
  416      1      12.20756994       14.24628872       27.10477659
  417      1      21.62114970        1.51013548       10.68331183
  418      1      22.92103986        0.00277311       12.94962683
  419      1      10.68799725       26.42194508       12.68116739
  420      1       6.59828469       10.54070513       21.75572450
  421      1       0.61499534       12.42774565        4.11180367
  422      1       7.74026432        9.76615082        3.80117852
  423      1      19.91244850       23.25103996        8.94169434
  424      1      20.70263696        8.42082035       10.64698817
  425      1      22.40815994       24.13458392        0.98840981
  426      1      17.25934839       20.77078951       26.00968387
  427      1      12.77074943       18.44967740       11.17845073
  428      1       3.37285183       25.05263721       14.76671766
  429      1       5.83173241       12.97919038        4.02533200
  430      1       7.39854742       13.01588349       26.93510919
  431      1      24.49182810       22.81331774       14.83329186
  432      1      22.71924812       22.92635926       11.30093504
  433      1       3.56430887        3.32223197       24.39486216
  434      1       0.61594401       22.79294410       16.42640641
  435      1      21.11295056       25.78593652        6.72476660
  436      1       8.43480910       24.93449395        9.40239167
  437      1      15.99078781       23.79457541        8.81508794
  438      1      12.97425846       25.40409807        1.10800213
  439      1      21.04024528       13.54588517       16.87925479
  440      1       3.81077897        7.94743420       17.14473824
  441      1      17.24817760       25.18557156        7.42255421
  442      1      17.27669142       15.77447233        8.70220920
  443      1      10.10499091        5.08813092        0.84646992
  444      1      15.35170560       14.91423761       11.95222987
  445      1      11.02393738        9.08495123       12.56816108
  446      1       4.37698788       22.30313879        3.82275027
  447      1       4.93568862        7.03241159        6.03225656
  448      1      24.89878901       19.00948745       24.82273382
  449      1       6.46357505       27.36160879        4.39513542
  450      1       9.40941924       27.39649194       17.73453809
  451      1      27.56908574       26.70516532        4.06863109
  452      1      19.61294812        9.32295599        0.07538755
  453      1       1.95767581       22.88174790        0.56183010
  454      1       5.92313162       10.85871903       19.49299896
  455      1       0.58446985       21.63000029        2.02611565
  456      1      17.54292275       11.97220810       17.31881774
  457      1      11.18868566       24.29173623       13.71261746
  458      1       4.62828272       15.23287914        0.67817564
  459      1      22.03152382        3.96603433       12.16869509
  460      1      20.13619495        5.57144560       15.38260572
  461      1      19.79635987       12.87253498        1.86350846
  462      1       4.34681684       11.48546625       15.77042400
  463      1       5.28280502       27.52925317       24.48005370
  464      1      13.24460453       15.10830615       13.16459074
  465      1      23.14037682       22.78932769       25.14270535
  466      1      17.11559882        9.28100582       11.96162678
  467      1      24.61800751       20.19548255        4.67766127
  468      1      21.85678577        2.65576722       22.69177162
  469      1       7.77313340       16.40540048        7.51234426
  470      1       5.34195485        6.86441941        3.71197256
  471      1      25.62425381       11.66743209       25.06317966
  472      1      22.87913354        1.64188150        4.85362451
  473      1      22.22913070       11.57052966       15.18548151
  474      1      27.58573468       21.94430225       22.99020235
  475      1      11.43799135       21.27428170       25.87900966
  476      1      15.72369646        2.28609843       20.25037749
  477      1       7.73571934       11.45157168       18.13387399
  478      1      22.79249898       12.30782216       27.22047236
  479      1      11.83434905        1.30241461        4.52303903
  480      1      12.20601165        4.61901038        8.36167364
  481      1      22.35144480       19.73455784        5.13115071
  482      1      14.57145951       23.01344775       15.50513617
  483      1       6.71402960       14.43835287       23.61595054
  484      1      17.88154517       19.16291797        1.63176739
  485      1      18.68577703       14.97136004        1.72864313
  486      1      24.66076032       24.99780324        6.03120928
  487      1      19.44130951       22.25466122        2.84177874
  488      1      16.11617388        4.83832594       11.65200656
  489      1       9.30526505       17.14720581       16.82440038
  490      1      12.23357332       15.80333238       15.24206861
  491      1      11.94532706       20.33974671       16.44274031
  492      1      27.19804059       15.72234234       13.02351393
  493      1       3.16199319       22.95816173       15.72918794
  494      1      19.10425427       26.12888533        2.10552065
  495      1      17.90054583       22.75539112       18.65747038
  496      1       0.05376221       16.92416635        8.45897656
  497      1      23.50225314       25.13246335       24.94685968
  498      1      20.17956773       27.13168763       24.65175204
  499      1      24.57882496       15.42247057       15.89805119
  500      1      18.82109478       13.34999481        6.29384142
  501      1       6.38477337       21.99741633        2.39347238
  502      1      18.16749338       14.06030176       23.46645628
  503      1       1.60082688       19.38306263       13.64932113
  504      1      22.37043596        0.36755327       15.26574369
  505      1      17.89056234        5.39457592       14.72916443
  506      1      16.11551640       10.11704751       17.97208838
  507      1      22.04530313        6.72239336        9.71096085
  508      1      12.89038073        9.39634078        2.69063490
  509      1      13.79792828       27.58725522       13.56822488
  510      1       3.02688104       15.59042845        4.16723256
  511      1       2.48453371       16.43801397       16.12768172
  512      1       8.66856167        8.09786358       23.81797115
  513      1       7.92063430       16.84350380       26.23236861
  514      1      17.86766887       26.61598712       22.13808817
  515      1      12.69858767        4.77752203        6.08727082
  516      1      13.19509378       23.74105010        4.66082633
  517      1       7.10006405       20.18579482       22.97978980
  518      1       1.34813396       10.17134149       12.53733302
  519      1       9.98249680        5.53942407       18.06083999
  520      1      18.62719504       25.44550291       25.40238944
  521      1      23.18760397        1.98198492        9.04959365
  522      1       3.94865939        5.51555108       10.18283857
  523      1       3.10498455       15.91553450       22.67954086
  524      1       4.05456294       12.23653695       13.54099708
  525      1      16.34503222       17.28759302       24.61860017
  526      1       2.52323320       26.57468107        0.09664488
  527      1      12.88529943       25.99841484       20.58338656
  528      1      20.81884353       18.42603800       14.36457607
  529      1       3.92153447       21.82626872       27.17133057
  530      1       4.65138105        3.31468576        6.17969358
  531      1      14.82144535        8.23805018       12.21264566
  532      1       7.30690314        7.78272230       18.14433456
  533      1       6.48394098        3.32919931        7.58544122
  534      1       4.87438822        8.19405636       24.37720951
  535      1      14.26067137        3.47354788       16.81784295
  536      1       3.24651937        3.68895000        0.50451250
  537      1      23.74610630        6.77734851        3.08272861
  538      1      18.97180877       21.20643527       17.07687011
  539      1      20.48701821       23.09194229       14.60371261
  540      1      23.71570787        3.72209084       19.35201331
  541      1       1.21299452       23.83454530       20.12878889
  542      1      12.91100737       23.01928200       23.58019077
  543      1      13.40546628       23.60766305       13.41387726
  544      1       2.63038412       25.66970997       20.00288237
  545      1       3.02010265        1.57258294        6.12068964
  546      1      24.68309064       11.70153322       22.86356652
  547      1       7.98141272       18.92705727       19.89529407
  548      1      10.91841594       19.27662244        9.92805575
  549      1       4.68216112       22.19692078       24.86631762
  550      1       3.38886253       12.61114200        6.72045440
  551      1      23.85394778        2.37088058       12.65257411
  552      1      17.60902991        6.39164420        2.54219416
  553      1      18.54874437        3.14415617       17.73078461
  554      1      17.56147502        1.84054442       25.19856486
  555      1       6.77897328        3.23854999       22.23578882
  556      1      18.99359433        1.66156303       27.30346964
  557      1      17.76439317        7.96425719        0.81816188
  558      1      23.14905080       23.27911971       19.28642229
  559      1      22.82849934       25.34008002        2.85279100
  560      1       0.10210177        7.41373507       20.11458109
  561      1       7.72421640        4.76025907        1.44062238
  562      1       0.67570737       23.71911775       12.63459492
  563      1      20.27437642       16.70818439        2.12737584
  564      1       7.55483646       11.51902795       12.05440238
  565      1      26.84035082       24.26929603        6.74364669
  566      1      26.64533522       13.07694632       19.74016506
  567      1       0.84158413        2.11804489        7.13257686
  568      1      17.36253602        3.28559952        7.19381717
  569      1      27.31122935       24.95479026       16.03530363
  570      1      20.91490145       22.05130025       25.61719010
  571      1      13.39468550       15.21726474        5.95483019
  572      1      17.08513613       20.48988036       13.57809196
  573      1      25.51309619        0.28914402       17.43008035
  574      1       2.61330824       26.98972721       22.10424465
  575      1       8.90995123       18.81016043       25.50299237
  576      1       6.26700550       24.42072157        2.38279940
  577      1      13.13786677        7.49685127       17.72893728
  578      1      14.60098453       19.65340706       21.85291840
  579      1      15.72034172        8.55191272       21.95871259
  580      1      27.14719653       21.57411344        9.70033416
  581      1      21.25726442       18.77788714       23.76000048
  582      1      23.29279491       23.80319449        4.53061424
  583      1       6.67471689       21.07050235       20.76227050
  584      1      24.43024908       15.95742532       10.10453112
  585      1      20.64019221        6.87571431       24.87238423
  586      1      14.63330505        2.02303995        9.76946394
  587      1      25.87401650        5.78730788       11.15253048
  588      1      13.58882738        9.81378306       15.14712147
  589      1      17.20354707        4.76797604       22.97845332
  590      1      21.40191169       20.15490141        7.25101371
  591      1      18.68507851       16.83872515       12.05494964
  592      1       4.88600039       14.38572031       12.98929028
  593      1      11.02277843       14.75778670        3.06523285
  594      1      20.91003883       20.32645282        3.23816056
  595      1      17.84181813        0.00093389        0.73898041
  596      1      25.38234092       26.82012574        4.66001714
  597      1       0.20079156        4.96683647       17.51347675
  598      1       7.40296526        4.36613432       14.11419893
  599      1       8.90349970        4.43607871       25.07151408
  600      1       7.50731602       14.20559963        2.98694950
  601      1      11.75116063       15.90889704        7.74798595
  602      1      12.04290760        1.89552824       23.65073030
  603      1      17.56212778        4.22396634       25.21510141
  604      1      13.71952796        6.28927179        9.20829637
  605      1       3.55728675       12.22877675       26.49333107
  606      1      17.58533897        1.64448289       12.38604892
  607      1      27.19407707       17.09763889       18.88359797
  608      1      27.64259127       26.67509893       25.07075082
  609      1      16.25525592        6.84914111       15.76287202
  610      1      25.85646473       26.43500714       21.71456886
  611      1       4.48242770       12.74200009       19.42016938
  612      1      19.53852221        9.17569960       16.38755324
  613      1      25.40528394       23.31113911       20.13896887
  614      1      11.52465543       26.54997772        4.80089618
  615      1      18.00815225       10.44491574        9.96083273
  616      1       2.07725391       19.45642546       25.11792093
  617      1      13.65543302       26.15353920       10.18226965
  618      1       9.02781001       20.82366688        7.34775357
  619      1       1.98021612       19.93017941        7.18581919
  620      1      10.74341860       19.87687712       22.18461054
  621      1       6.88547250       22.81736696       16.95075203
  622      1      11.96021489        9.57198963        7.22039123
  623      1       5.79110914        0.92430095       26.67101995
  624      1      16.89154623       15.90767808       13.37252900
  625      1      15.20815309       11.41750251        7.15379045
  626      1      22.64434759        3.89390051        7.80541668
  627      1       5.83378881        4.25234624        9.61238175
  628      1      16.00504141       16.67357908       20.23223729
  629      1      10.66391775       22.03912122       23.40172910
  630      1      16.15488727       17.69966209        2.22610538
  631      1      20.64613065       13.67990793       19.21963912
  632      1      24.37728952        6.39771570        0.75568118
  633      1       0.97707278       14.56930104       16.74902768
  634      1       1.28143883        2.84894590       24.02635936
  635      1      18.26915268       22.11301162       14.98757018
  636      1      16.91313885       26.46723583       26.66412127
  637      1       5.67650907       17.65597373       25.97985949
  638      1       9.07015993        8.84104713        0.12185861
  639      1      23.61909573       22.10064014        1.17343981
  640      1      27.50317754        3.93143078       25.58410728
  641      1      11.01110829        1.21379922        8.91978454
  642      1       9.13634662       15.10482813        4.43481859
  643      1       4.62423445       20.11871223       20.13629059
  644      1       1.36011174        2.68493710       11.16642451
  645      1      14.50319835       27.13567272       21.88062980
  646      1      19.32353963       13.76378678       25.55423634
  647      1      21.33621654       15.77754626       27.47167229
  648      1      12.32372346       15.24350935       24.85947616
  649      1      21.51776085       18.25454100       16.76313512
  650      1      20.09013689        6.55186598       19.08625398
  651      1      26.89891929        9.65468439       11.69558691
  652      1       5.22874814       14.01851677        9.27579452
  653      1      25.18678253       12.04364615       18.17500576
  654      1       8.06945186       20.88980504        3.61851702
  655      1       2.02688420       12.79220049        2.26672009
  656      1      11.86519627       13.05568690        5.94060744
  657      1       6.64784691       16.05365574        1.80048397
  658      1      26.22097957       20.37763428       26.29637713
  659      1       7.88455007       22.66695787       19.05908731
  660      1      16.24825698        7.57393728       26.68894944
  661      1      19.39460116       18.53345315        3.31976478
  662      1       0.94313826       16.24293855        0.73754799
  663      1       1.16751848       25.34738359       14.21386874
  664      1      17.12263213        9.81730631        2.42192268
  665      1      15.05764013       14.52984184       17.58923955
  666      1      11.98844202       12.64485667        3.58530918
  667      1      13.07588733       19.81608155       12.99780947
  668      1      21.14467256        9.09191803       22.10417139
  669      1      20.73174334        4.96035890        8.84239813
  670      1      24.05419916        7.52097926       19.22053426
  671      1       8.49145654       11.71887692        6.83672191
  672      1       7.56942379       13.62750444       15.28255077
  673      1      16.39013630       27.31445653        7.47586370
  674      1       1.54599686       12.82131489       10.24686706
  675      1      25.67166279       11.54259887       10.92875522
  676      1       8.22525448        4.81264951        7.06948733
  677      1      20.42730660        4.75640825       17.60055531
  678      1      10.43312896       18.62261041        0.94274768
  679      1       1.95019678       22.76718120       22.07296943
  680      1       3.38094101        2.46151102       19.75817015
  681      1      12.63483937        8.68003238        5.05909045
  682      1      19.93046271        1.97597249       21.61971509
  683      1      15.32911419       23.85534246        3.76127062
  684      1      23.29134830        9.58666562       15.88271763
  685      1       2.30369659        8.82495256        3.19232703
  686      1      22.44499321       10.16728629        2.57785405
  687      1       4.22435700       12.30950720       24.27921725
  688      1      20.72726439       26.30849841       12.36452854
  689      1       5.27326649        8.61698028       18.86557590
  690      1      16.96587938       15.41863740       18.52451254
  691      1      20.94762263       10.23777539        7.21065393
  692      1      15.61366004        5.30827027       26.21998042
  693      1      18.96681905       17.80401718        5.72000693
  694      1       1.90518093       25.51390148       25.69680623
  695      1      21.35471723        6.53377882        2.16385831
  696      1      23.53525403        8.16470158       27.13026268
  697      1      19.02880814        0.68833924        5.14192776
  698      1      20.97153919       11.78526217        3.64973548
  699      1      23.48946926        8.30586863       21.64801941
  700      1      21.16175982       27.60530908        5.14971044
  701      1      25.05306709        8.72926386        8.71980821
  702      1      10.73028672       23.11342574       21.05015352
  703      1      10.51506985        6.74905667       12.08392971
  704      1      22.31089918       21.66403873       15.02686082
  705      1      19.27391654       15.88955589       22.10325238
  706      1       0.23553182        3.11982536        3.58788409
  707      1      10.78473464       26.76694094       21.39840408
  708      1      15.12959352       19.34216311       14.33824137
  709      1      16.42831620       27.62296288       20.60448407
  710      1      23.32286525        4.46469314       25.61642479
  711      1      14.51655173       17.41266700        0.42386314
  712      1       8.70542871        0.56887847       24.11767946
  713      1       5.46193835       17.71324047       14.58295293
  714      1       2.43328068        6.49854300       19.91606127
  715      1      16.30719439       20.09914348        9.81430091
  716      1      10.18752005       19.02977848        6.26103392
  717      1       1.34422310       27.52342259       13.40601237
  718      1      11.32654013       10.71673859       25.46072417
  719      1      25.40941919       19.39238165       16.06921326
  720      1       1.98992311       19.99791311       18.02822921
  721      1      19.14279306        2.62276303        3.80351851
  722      1       3.72490140       10.09191213       27.34547499
  723      1      24.03427013        4.81237073        4.29948371
  724      1      12.28019171       11.84172471       27.40195474
  725      1      10.10289684       13.38879149       20.25255882
  726      1      23.32907726        8.83889233        4.29037788
  727      1      13.69734926        1.94803911        5.97189902
  728      1      23.41971308        7.28025401        7.90607383
  729      1       0.13218152       16.04930282       24.36454779
  730      1      26.72368597        2.69324288        5.63393008
  731      1       0.42769888       21.22128056       25.14863505
  732      1      26.29194886        4.40593267       19.30910352
  733      1       7.25707277       17.94609420       17.84995209
  734      1       1.47174265       11.55379664        6.00610863
  735      1      19.21973602        2.14063429       14.21630882
  736      1       7.71997350        1.85829913       20.40234413
  737      1      20.92651019       14.33502945        6.44160588
  738      1      12.81685970       11.68327461        7.58569355
  739      1      13.79843076       18.72124184        7.77837041
  740      1      23.18009841       14.50280502        2.85955005
  741      1      19.51538686       11.54232790       15.89088597
  742      1       8.24902464       13.62870659       18.82188555
  743      1      22.93492328        6.78987957       25.25694652
  744      1       7.06500563       21.81050709       24.66819703
  745      1       3.34500237       21.33136107       10.65267245
  746      1       0.97556628        0.50567409       23.51298213
  747      1       6.05744954        8.73793649        2.50620050
  748      1       5.71670017       17.28118528       10.79176879
  749      1       9.99553695       26.22728106        6.54754412
  750      1      18.47855866       19.42071324        9.38573826
  751      1       9.21932069        1.74655732        0.07166579
  752      1      22.66683480        2.62427278       15.75999740
  753      1       3.78126514       20.28768583       23.85071159
  754      1      15.73265565        3.37845772        5.43229477
  755      1       7.12224445       18.87451053        4.40187901
  756      1      23.14137456       17.05879430       27.12214291
  757      1       3.78341741       20.22118436       12.71898313
  758      1      25.62233515        9.62939079       26.46097803
  759      1       8.79946214        8.94987089        9.40386882
  760      1       0.09218872       17.95544107       12.28511314
  761      1       3.15971694       17.19004294       13.96758176
  762      1      11.04780103       19.66612739       14.38230898
  763      1       7.43297853        1.66932352        3.65695628
  764      1       2.60145219       15.03538233        1.95939199
  765      1       3.73971844       17.75019580        4.12918309
  766      1      19.15156006       18.77163690       19.62824707
  767      1      14.59852720       18.13847207       25.86845165
  768      1      18.61254447       23.03967610       20.87278511
  769      1      17.07899966       16.51223463        6.50849357
  770      1      20.71036202        8.82935885       18.43532183
  771      1      23.98721039       13.13505291       16.34682490
  772      1       8.69729128       23.40335424       24.15151908
  773      1      14.02387086        1.93705805       18.63075789
  774      1      20.13889986        2.68967673        1.55657382
  775      1      10.46465089        7.19887524        9.75186131
  776      1      20.60926749        5.55300593       21.13988515
  777      1      15.60340545        2.88665012       12.90770669
  778      1      13.29564282       11.82592353       11.28060216
  779      1      19.43163307        9.07744139        8.72856482
  780      1       7.41675780       26.92372706       16.24288451
  781      1       4.79363842        7.68217745       10.02550367
  782      1      24.55143514       26.82250209        2.52220889
  783      1       3.63926374        5.99468760        0.48514382
  784      1       3.72531677        5.13934942       22.98079218
  785      1      13.66717133       23.59191100       17.63962451
  786      1       7.19160451        6.91288306        6.80024657
  787      1       9.66264440       13.62345398        6.21062949
  788      1       4.96754480        1.94727343       23.25953830
  789      1      27.25670182        2.15603658       20.28695337
  790      1      22.08637544       15.38512613       10.00371602
  791      1      21.51239060       13.49169490        8.63204203
  792      1       6.50001276       12.01687422       23.62624610
  793      1      23.95888090       12.20036980        6.03263775
  794      1       6.13479679       26.18720830       19.21574628
  795      1      27.48416189       25.05365628        2.43820234
  796      1      24.98698556       15.16292549       12.28387907
  797      1      25.71760019       13.65666884       21.93755045
  798      1      15.13839876       25.42902591        2.13943196
  799      1       4.51409222       14.24104394        5.42549533
  800      1      10.11526584        6.23739682       24.03806899
  801      1      10.68794840        7.51465879        4.37286150
  802      1      26.44927540        6.48718772       16.41373528
  803      1      20.09623549       20.88182032       23.69020774
  804      1       9.50041358       22.93843952       12.90859442
  805      1      21.17803834       23.62438772        5.73011101
  806      1       1.82693408        9.23198796       26.47515629
  807      1      10.74378608        3.41923749       17.70175703
  808      1      21.08027129        3.68646725       14.30978540
  809      1      21.02012693       20.10128161       26.95329168
  810      1      27.56678640        6.26573653        4.94625799
  811      1       8.53715965       17.04117269       21.50828146
  812      1      15.86921186        5.96943549        8.21308656
  813      1      16.52802015       11.84054649       26.78942109
  814      1       8.33760864       14.69987267       25.26702938
  815      1       7.61154367       24.68911073       22.52245379
  816      1      26.42013129        7.87593057       24.83691735
  817      1      14.53231751       10.98046749        0.06297428
  818      1      11.65896034        3.04469719       12.16563256
  819      1      10.88809797       12.38983975       14.46167634
  820      1       1.66525458       18.20149674       19.55901937
  821      1      13.80232814       21.06823766        7.66669879
  822      1       0.70983562       11.33150001       19.82418705
  823      1       0.74823050        3.61123124        9.01103146
  824      1      10.26993396       14.71905173        0.86401996
  825      1      27.35241682       23.86124676        8.96892066
  826      1       6.15828300        5.23240402       15.94984797
  827      1       0.87387090        0.90332468        2.97898576
  828      1       5.89918402        5.63538459       22.07860545
  829      1       8.82048662        9.61440175       11.76033394
  830      1      26.64376234       10.91163130        3.44875060
  831      1      19.58932036       11.25012219        5.48504014
  832      1       2.20492448        5.38867890        8.52773323
  833      1      15.47221218        0.05100770       15.25736325
  834      1       4.14596392        0.93219917       21.36104234
  835      1      25.87131775       12.26251522        1.68918563
  836      1       8.37137502       24.62964600        5.70953108
  837      1       2.66253760        4.44965266       21.00355500
  838      1       8.04668520       24.59630677       15.90711547
  839      1      22.03638235       26.72263443       19.77549529
  840      1      22.26961710       23.21568552       21.46758222
  841      1      10.33250013       15.38130957       21.60631746
  842      1       5.24199814       18.82278851        0.40547535
  843      1      12.29450041       10.19771788       20.45972808
  844      1      24.97503012       15.67159580       26.61054737
  845      1      13.29245607       24.82838282       24.92539634
  846      1       2.21234549        0.50102322       11.20939298
  847      1      24.34300097       15.51818942       22.76435778
  848      1       5.89111903       23.19451816       12.80285297
  849      1      19.15292118        7.93444725       12.45716796
  850      1      17.50133766       21.46772265        1.79208049
  851      1      15.64980520        2.43864643       15.22339230
  852      1      16.72385651       10.70109147       24.64991491
  853      1      15.15264006       13.34139660        5.64750672
  854      1      11.67017329        2.35806334       19.61640997
  855      1      11.46851551       22.56550239       17.28150447
  856      1       1.89485490        8.47751319       14.14107414
  857      1      23.21758982        0.79008520       22.86059758
  858      1       6.87502737       21.04775049       15.41747060
  859      1       9.02339047        4.33589768        4.99522262
  860      1      10.47448335       24.37256421       15.97418793
  861      1       3.34023701        5.23459485        6.35746842
  862      1      14.27064430        1.51455888       23.21218820
  863      1      20.21933193       10.24827137       20.29086520
  864      1      18.65136050       12.39890766       13.77197817
  865      1      27.23794819       26.33769855       17.89736090
  866      1       6.79897455        8.18596334        0.31675976
  867      1      11.05307602        5.27707206        4.50201919
  868      1      22.76330774        0.31000842       27.21617892
  869      1      23.63765708       17.12813668       17.22935664
  870      1      20.98379363        4.70108493        0.60315352
  871      1       5.24543198        8.60423786       12.11888896
  872      1      25.01055221       10.05298067       21.29650141
  873      1      13.97551420       16.39687687       16.67866219
  874      1       3.40519242       17.01817232       10.19985418
  875      1       4.43675300       15.28524755       16.73128600
  876      1      21.84228644       13.80745525        0.98881271
  877      1       2.96610317        0.83929579       14.82065595
  878      1       3.13809146        6.59452745        2.80283945
  879      1      26.10276638       27.61464415        9.30320910
  880      1       6.76053260       11.32867152       15.97042369
  881      1      15.08518658       18.47122522        4.20337138
  882      1      22.95116435        9.24029314       18.17005311
  883      1      13.78742073        5.84539200        1.95343521
  884      1       5.24913449       26.27953696       10.84403470
  885      1       2.73818692        7.05290165       24.06160798
  886      1       0.36711770       27.62984129        7.90197467
  887      1       1.92783839       24.52084352        9.18228639
  888      1      18.81237949       17.18020977        9.74084465
  889      1      22.45766558       16.68262611        3.02316494
  890      1       1.51605276       15.52000477       26.27978475
  891      1      12.30135002       16.63206413       21.00864685
  892      1      13.62797507       21.85204384       11.81479059
  893      1      25.91336403       25.76355450        0.60872204
  894      1      12.17425850       27.20691741       27.40567911
  895      1       2.84757014       13.81047143        8.64843030
  896      1      19.46173258       26.25013446       14.51676266
  897      1       2.96480096        8.83535894        9.06141468
  898      1      22.83443225        4.41769299       21.45275019
  899      1      25.17737729       26.55410176       13.37403838
  900      1      17.53143305        7.24082539       22.94092002
  901      1      19.22964153       22.81703006       11.10462882
  902      1      17.10078067       25.95372098       14.48449746
  903      1      26.68568994        5.99477683        0.91802907
  904      1      17.87326985       14.34830827       14.78803330
  905      1      14.24349778        8.77911214       27.03119295
  906      1      17.12822905       26.92711877       18.36762239
  907      1      23.95179692       27.60595439       20.79380301
  908      1       0.62220992        2.79954024       16.74895567
  909      1      11.31492604       26.48609390       16.64666629
  910      1       9.60585135       26.10536222        2.09453886
  911      1      26.76410391        7.81873051       10.13689984
  912      1       6.02474072        2.47785752       10.94363423
  913      1      20.41152884        7.79268869       14.63695624
  914      1      22.09450322       26.47420005       23.58087343
  915      1       6.70994651       11.29330017        5.36752718
  916      1      24.61329202       22.18039140        3.33137449
  917      1      22.22627748       20.21584287        1.30524793
  918      1      26.41947306       10.07510199       17.35841430
  919      1       5.35037779        7.36156757       15.49498038
  920      1      11.31928848       12.11203013       23.53777253
  921      1       8.93409409       20.86471863       13.96647520
  922      1      13.57377234        5.25648698       22.61698618
  923      1      17.51878102        8.52435352       24.95474299
  924      1      17.28331387       24.53203140        5.14389469
  925      1      26.11485629       14.99128916        8.66569411
  926      1       5.74309470       18.80164571       12.54996552
  927      1      11.65926330       27.64652618       14.48132783
  928      1      16.44012806       12.02739328        9.08761913
  929      1      13.65615147        1.28402863       26.74361653
  930      1      17.77100008       19.30329034       17.70559414
  931      1      19.61892383        1.10685346        9.32009982
  932      1       3.53375570       13.16406287       17.26860798
  933      1      20.01189323        4.41779734        5.03454508
  934      1       2.22321736       26.88832823        9.10968718
  935      1      21.00919679       15.77959417       20.28434610
  936      1      15.43052604        7.30170628        3.10231350
  937      1      14.88305903       10.65955005        2.34558725
  938      1      22.37397168       11.86201603       12.82714199
  939      1      14.79574842       11.78226627       14.48869908
  940      1       8.15020966       22.21140739        5.59221366
  941      1      15.82570989       17.20358229       15.20231853
  942      1       5.71858781       21.98077048        5.77945893
  943      1      12.63906201        7.80498304       19.97134692
  944      1      12.23005856        2.15228113        2.35834522
  945      1      26.10037027        4.23028527        9.45052817
  946      1      15.45040503        0.53516428       25.32165541
  947      1      12.49161161        8.30756207        9.19842303
  948      1      15.56100038       22.31773626       18.75148704
  949      1      21.39637927        3.23774414       24.95936471
  950      1      25.27943637       20.71074230        8.55942904
  951      1      10.41119640       21.55714485        9.26908352
  952      1       8.69095308        9.50448245       21.81738471
  953      1      18.00096381        7.48164788        7.45512712
  954      1       9.96493238        2.74190136       10.34913733
  955      1      23.68638967        7.98867067       12.72367254
  956      1      21.04178313       15.20097542       25.19875690
  957      1      13.46531849       21.72965501       27.01712323
  958      1      13.62768243       24.44173267        8.60307995
  959      1      15.18860647       15.98095045        9.85349325
  960      1       9.63452797       13.49428706        9.83489764
  961      1      21.04571359       17.12186440        8.88876516
  962      1      26.92178108        2.36990353       12.23419761
  963      1       6.09553099       27.11681270        6.83385614
  964      1       8.65609310       14.66989626       11.68619289
  965      1       8.01634159       20.88919828       26.57811348
  966      1       7.38008935        8.92375940       15.46782278
  967      1      18.34355157       11.28997900        0.75925755
  968      1       4.52511531        7.49431546       20.74478217
  969      1      11.78539062       13.21230450       18.55396086
  970      1      26.36396816       21.26102321       19.55837989
  971      1       0.34380459        8.05500721        6.47684021
  972      1      18.33718512       11.69790536       23.12672017
  973      1       4.61510927       22.93750688       17.63865526
  974      1      11.26127289       10.04974497       14.68294868
  975      1      25.11819879        1.50402110       24.05857047
  976      1      20.85795864       23.92004477       12.41491742
  977      1      25.67612820       12.34214147       14.78336060
  978      1      17.16672804       27.24343481       11.17892142
  979      1       0.95267841        0.68968107        0.59586474
  980      1      14.19136276       11.60931403       20.73322787
  981      1      23.22049952       25.90075687        7.69723362
  982      1      15.17329726        3.48322193       22.27306795
  983      1      24.22802980       13.48209400       25.84587250
  984      1      12.87951463       17.41342604       18.69983563
  985      1      25.82932032        4.84521195        5.76183623
  986      1      14.86107242        5.78552432       17.37600982
  987      1      11.56654580       19.88745266        4.57906948
  988      1       3.56884522        3.26578335        2.90180957
  989      1       8.62588682       17.34901729        5.46632683
  990      1      25.79242656       13.59318520        6.51886088
  991      1       3.96920420       23.67622495       23.14745929
  992      1      17.73066581       16.97492118       16.80774266
  993      1      13.29990761       25.52325833        6.27772975
  994      1      22.34364644       13.33229417        4.74353636
  995      1      24.35400694       18.60465405       13.91963575
  996      1      19.24718458       25.28036899       20.89219858
  997      1      12.25084671        5.32570920       12.55506122
  998      1      14.30678859        2.18816395        1.08616109
  999      1      18.03103298        9.66282011        4.71156713
