run_id:  1011  total_energy:   -3022.7210711750254

  1000 atoms
  1 atom types
  0.0   27.664  xlo xhi
  0.0   27.664  ylo yhi
  0.0   27.664  zlo zhi

 Atoms

    1      1       0.02834031       18.75943696        6.75321884
    2      1      14.62552960       18.57133726       19.61435401
    3      1      19.84659448       15.24450900       15.87159884
    4      1      17.38707550        8.35110270       17.15417854
    5      1      12.82645227       12.82302076       13.23226647
    6      1       8.84698862       16.64436936        0.74620308
    7      1      13.85371300       23.98343597       26.99776721
    8      1      24.93093683       22.93809824       12.35343410
    9      1       0.66475466       26.03256963        6.07637751
   10      1      26.73060762       27.51455303       27.05890655
   11      1      26.23903291       24.02160850       26.51147404
   12      1      24.72235139       12.83131975       12.65662774
   13      1      11.75490350       16.38800228       11.38587512
   14      1       8.75411350        2.82813265       23.38407309
   15      1      22.29037940       12.22398368       22.82323609
   16      1      16.00116238       21.57916880        7.97689769
   17      1      22.71817747       17.48371568        5.25352084
   18      1       5.68761106        9.39215990       26.32683070
   19      1      25.01683247       10.29270363        5.08423421
   20      1       8.66417290       12.93393182        1.28297575
   21      1      25.63604975       18.09005922        1.78180471
   22      1       2.99796028       23.65518773        7.17645930
   23      1       4.98795525        2.30786732       17.94720936
   24      1      10.40018486       14.36587842       23.86278847
   25      1       0.35951290       14.93445963       19.05957564
   26      1      27.39429743        9.48679711       21.16048382
   27      1      12.91488777       18.16576417        3.63198479
   28      1      22.33608320       19.11013011        9.32213488
   29      1      17.73336143        3.21379029       15.55997971
   30      1      27.30615471       22.38705791        5.58618863
   31      1       4.81955266       21.76225057       14.24893512
   32      1      16.66737396       18.82586576       22.84320088
   33      1      16.95769510        2.92640289        3.35973858
   34      1       9.67850807       16.73622960       12.32818378
   35      1       8.25391954        6.09676301       12.58875098
   36      1      15.74058500       27.18668267        3.60047404
   37      1      10.63333495        6.59151208       20.12232377
   38      1       7.04888764       26.91717854       23.01549508
   39      1      21.86239575        2.72685363       18.06472382
   40      1      10.69456157        0.53779024        1.29343657
   41      1      10.84652457        7.13452225        0.00673179
   42      1      10.63967224       25.33702430        8.67079859
   43      1       4.51823056        0.67516237       11.51525508
   44      1       8.90957578       18.77883245       23.15821808
   45      1       1.34787496       13.15243751       26.41138626
   46      1      23.70731231       11.00745691       19.48288040
   47      1      14.36727702        7.67823917       14.48201487
   48      1       6.61538766        5.02955025       25.70403387
   49      1      14.97375100       20.37397133       25.92644227
   50      1       9.80531144        4.83379806        9.02364050
   51      1       1.38777091       18.49718895        1.06252695
   52      1       7.30421757        2.38876819        1.37076818
   53      1      24.48952238       19.93012774       22.67228876
   54      1       0.33260624       21.47761734       13.32216781
   55      1       6.87810353       21.93854791       11.06242519
   56      1       4.65387069       24.45521389       19.58974897
   57      1       1.88560521       18.81853646        3.34203240
   58      1       5.77223625       11.76199260        9.32551609
   59      1      27.17887628       11.76534888        7.37765040
   60      1      23.31532675        4.41861700        0.18528138
   61      1       2.39193895        3.05350734       15.25325309
   62      1      18.77032182        0.71419001       23.30547347
   63      1       8.13266310       11.67894701        9.26440804
   64      1       5.42965497       27.55792568       17.39119928
   65      1      20.41312037       21.76093248       21.54985032
   66      1       7.20743088        5.14791017        3.73964839
   67      1      15.95435569       13.21943624       15.94374528
   68      1      24.41272815        7.21940526       23.51648869
   69      1       0.17843088       12.29081439       24.59774120
   70      1       7.16999678        2.97666845       18.43339063
   71      1      10.38954012       17.37960026       14.60914357
   72      1      13.73892920        9.72029399       17.35683734
   73      1      13.30001362       21.09301766        1.56412939
   74      1      24.83595378        3.51524301       14.79070042
   75      1      26.34967575        1.83735956       15.77019540
   76      1       2.67580228       10.69881534       10.67229985
   77      1       2.65343386       23.58854039       11.14191416
   78      1       7.69758252       20.00810723       12.16386471
   79      1       3.85734503       16.83845672        7.78583351
   80      1      23.73840417       26.55846385       16.58142501
   81      1       7.03701575        7.54758048        9.10526620
   82      1      18.79310689        3.99479095       21.35499028
   83      1      11.03089886       18.97471370       26.25524016
   84      1      14.76807729       27.40492611        5.81854906
   85      1       0.70293862       21.96522717       18.56449321
   86      1       5.67012419       17.96336174        2.75666943
   87      1      26.81670463       25.11979543       19.89973779
   88      1       9.56148826       14.98989638        8.23852285
   89      1      25.17848914        3.75701175       24.40017874
   90      1      24.20486104        5.80233480       15.84917009
   91      1      11.80758109        4.48922040        2.44987913
   92      1       0.54870943       12.59295724       15.64938729
   93      1      20.00905278        0.35496498       15.58738924
   94      1      16.10172635       10.25149670       20.34378202
   95      1      22.82170957       14.21920258       24.05228583
   96      1      17.71792384       20.81553473       23.71362513
   97      1      10.11883470       19.77550737       19.80190498
   98      1      12.99269346        9.47517428       11.23240959
   99      1      25.50678444       10.08304290       15.26738892
  100      1      27.43309186        6.21038204       26.21185755
  101      1      22.77097698       11.61092893        8.03109391
  102      1      15.01582527       26.03443318       23.99274186
  103      1       9.00198207       14.69844749       16.85895322
  104      1      18.91103163       22.89291614        5.06141263
  105      1      17.88880909       26.50184205        4.11029994
  106      1       2.92578126       25.46731176        5.76163495
  107      1       9.69228492       10.01927188       18.14854464
  108      1      11.19406138        5.34713016       22.13017955
  109      1      23.76812452        1.41191776        2.60405096
  110      1      16.03540215       24.51614628        0.00121576
  111      1      13.85385221       13.62246076       19.49050659
  112      1       1.78639379       15.69729433        7.47971244
  113      1      11.09486415        6.92146550       16.52473593
  114      1      12.89825256        7.73843036        0.98160763
  115      1      23.82289165       24.43792370        9.45517654
  116      1      17.20518181       14.58932636        5.21579564
  117      1      19.82530425        4.87626886       25.93030058
  118      1       8.68704564        2.37736707       14.72721408
  119      1      18.94215542       18.94713411       13.05417947
  120      1       8.90787095        2.12045935       17.05857469
  121      1      12.56150191        5.88705602       14.82501828
  122      1      18.14044726       15.15389337       27.07393694
  123      1      26.95885859       14.24371821        4.58998476
  124      1       5.82614231       19.23943563       16.49038883
  125      1      14.46992115        6.78745966       21.04177826
  126      1       2.62464095       12.35540079       20.87466209
  127      1      19.65588400        6.29217003        3.73830096
  128      1      11.12586325       13.92943917       16.27178759
  129      1      20.92781419       16.68898019        6.58801191
  130      1      14.90922149       22.21327902       20.97314456
  131      1       5.07455886       11.03669295        7.11666221
  132      1      14.91914743       17.21030193        6.21156785
  133      1      25.15080459       25.20750087       15.22732061
  134      1      16.84587651       22.73915158       22.47866293
  135      1       5.23717942       23.20166978        7.64856203
  136      1       6.06074555       20.97405997        0.33705023
  137      1       9.61083710        2.00316852        5.06512831
  138      1       3.01277639       19.44014963       27.31824364
  139      1       6.28733517       15.02758529       11.22126787
  140      1      13.00393447       15.81733156        3.84846730
  141      1       9.58200212       24.48890617       26.11750140
  142      1      26.86066769        0.66229233       13.76369940
  143      1       9.18658277        9.69504095       25.61180511
  144      1       3.89728388        9.05300388        6.94208830
  145      1      17.18502619       23.46535511       10.81342009
  146      1      21.62779574        8.59441781        1.01856014
  147      1       1.83772196       21.87888183        5.94744650
  148      1      11.45932375       26.89066105       10.28278491
  149      1      13.76522343        1.82735500       11.98965594
  150      1       7.37040471        1.17026515        7.94344368
  151      1       0.40769339       12.11041067        0.60068499
  152      1       0.10928750        9.10841430        2.40998161
  153      1      15.44592471       20.61366256        4.74416633
  154      1       7.80046352       25.59629390        3.65821276
  155      1      14.07877388       14.38117293       23.39906928
  156      1      24.69466545       17.66860675       19.20819701
  157      1       2.07042353       24.88071197        1.68903428
  158      1       8.76689531        8.29664466        5.47353826
  159      1       1.27407871       14.17610506       12.25718268
  160      1       2.11473867        6.59268569       26.21610381
  161      1       4.26347347       20.59150222       17.92774837
  162      1       5.51358531       16.36295908       18.47521976
  163      1       5.07386462        1.13384452       13.80475173
  164      1      27.44938832        7.08594729       14.33320160
  165      1      13.35254080       14.86280750        8.56176952
  166      1      19.41660433       23.57848210       26.71693243
  167      1       5.83898108       15.26850127       14.90950591
  168      1      11.02185850       18.62023434       17.93066188
  169      1      14.67166025       18.27742352        9.85491398
  170      1      26.61189488        7.20166509        3.02168818
  171      1      11.49412007       24.52718428        2.77509318
  172      1      20.64459409       15.34632598       12.08358908
  173      1       7.36142176       17.96795853        9.29175427
  174      1       1.72745819       14.48735297       21.28008587
  175      1      16.36301471        9.18862193        6.29878995
  176      1       2.24325169       21.11706370        3.69049176
  177      1      18.12407131       13.58586690        8.55854351
  178      1      25.70648008       23.30075485       22.57074700
  179      1      11.51674999       18.22513285        8.04127487
  180      1      25.54434793       18.07221268        4.06602694
  181      1       8.27864232       25.21345552       18.99850103
  182      1      22.52547487       21.03070747       18.69874222
  183      1      15.39612314       21.75131508        2.75644452
  184      1      21.11988071       26.85586511        2.96416488
  185      1      24.94701462        1.46829721       19.37046261
  186      1      21.93204549        8.32660104        6.15892298
  187      1       0.82403029       23.33825153       26.23273173
  188      1      12.55712234       18.42135185       22.57343973
  189      1      17.44128380       22.58696198       27.41351806
  190      1      14.95143000        5.55032581        6.09653267
  191      1      14.27860812       25.55315489       12.35807809
  192      1      10.79771294        3.08334468       22.00687828
  193      1      25.72574536       25.24274085       24.06821472
  194      1      21.78851160        0.96202876        1.62218643
  195      1      10.24488433        3.54097619       26.73905683
  196      1      18.02683155       24.71093855       17.48275875
  197      1      20.89286059       20.77456139       17.03548013
  198      1      16.56325520       25.34486246       12.24783715
  199      1       3.40380903       26.89450655       16.43691175
  200      1       1.24474515       18.07837515       10.18175978
  201      1       3.98528762       15.92419133       26.20752822
  202      1      16.01683227        5.78646975       19.39682079
  203      1      22.03667978       20.53788281       11.24058752
  204      1       3.73619331       24.81951398        3.46571766
  205      1      18.28600936        5.71142139       12.34342439
  206      1       9.18355611       10.59824704        1.89868580
  207      1      26.76171261        5.50617748       21.25344519
  208      1      26.24637580        7.92520448       18.29415546
  209      1      26.87285776        4.87448986       13.20568900
  210      1      12.94737440        8.98088576       25.10623453
  211      1       4.69626080        9.29653038       22.35174457
  212      1      24.77926257       22.19001787       26.75383149
  213      1       0.17143884       17.85569032        4.68509636
  214      1      23.16385623       16.70495278       20.94039852
  215      1      13.18098778       25.92268439       18.13440630
  216      1      14.13415455       15.27713027       21.18325242
  217      1      26.26130190       15.96009537        0.98747464
  218      1       4.79992985        3.33803378       26.20085361
  219      1       3.80750209       18.62266516        6.33551814
  220      1      20.47779620       10.71470811       23.77382019
  221      1       9.88974478       22.36404974       27.25262148
  222      1      11.36155708       26.01136570       25.48141770
  223      1       1.73562637       12.31614551       13.62325186
  224      1       9.79338625        8.87598370       16.11837954
  225      1      17.28713050        3.78416795       19.56319812
  226      1      16.54967167       11.42454648       12.90768957
  227      1      25.55126991       14.37929641        2.59795853
  228      1       6.27066032        5.91924944        0.18056194
  229      1      13.65646107       12.06835141       22.99207115
  230      1      26.68434331       20.18595947       21.57055904
  231      1       7.65564699        5.62132576       10.31853755
  232      1      22.61073580       19.77396105       13.45560343
  233      1       4.40275763       12.12259347        2.33794997
  234      1       1.11206799       19.02724180       21.62526502
  235      1      21.39029416       16.13008237       14.12103865
  236      1       1.79450760       27.04398464       18.22206895
  237      1      17.03659456       24.91865713       23.60994172
  238      1      20.04820594       24.01032777        1.30161517
  239      1      14.22140951        6.10510763       11.45124038
  240      1      22.29088069       25.22433633       17.96360113
  241      1      14.67295491        9.96472850       23.67622673
  242      1      19.55667332        7.83351753        5.40760838
  243      1       5.40377151       18.68447878       23.74036445
  244      1      24.79900050        2.73457572        0.86422666
  245      1      12.16907569       12.83599717        9.41896482
  246      1       6.89516478       24.96661071        7.52329049
  247      1      19.01445702        5.06767032        7.13114711
  248      1      12.17578433        3.65852644       15.83808555
  249      1      22.52975333        9.82098036       11.62961059
  250      1       1.40920040       18.84993364       16.11088854
  251      1      16.08387419       14.15683264       26.59857366
  252      1       3.05951598        1.23958360        3.66792003
  253      1       5.17402544       13.07529634        0.26338760
  254      1       5.72852052       23.45962399       21.52088195
  255      1      11.84004115        6.83995914       25.47823161
  256      1       0.99057596       15.74860157        5.22009264
  257      1      24.27439041        0.27986026        7.88638089
  258      1      24.65748496        5.16378323        7.75357309
  259      1      15.48778378       27.57157473        9.58139201
  260      1      23.37905533       18.15695440        1.43848111
  261      1      21.12627566       19.94608258       20.30714302
  262      1      25.52926859       16.70564245       24.53797066
  263      1      24.87661408        1.24066356       26.61293998
  264      1      19.94204132       16.88513585       24.07951486
  265      1      12.82654351       18.71899479        1.44679388
  266      1      17.48716364       21.18883556        6.11982951
  267      1       7.57852814       26.66072024       10.77757436
  268      1       9.34570546       24.97969964       21.05838299
  269      1       6.93148573       19.94885076        8.21291249
  270      1       5.44099860       21.52761538        9.32449040
  271      1      16.38273797        3.66393108        9.44409129
  272      1       4.91879961       10.94129574       11.67942195
  273      1      21.77389764       12.01394495       20.40935452
  274      1      16.04979361       21.50326927       11.59334543
  275      1       0.01289162        9.79264888        0.10752483
  276      1      22.26492239        3.77295938        5.48202307
  277      1      17.79895096        7.26226622       19.15898026
  278      1       4.86642299       17.15131929       21.97608015
  279      1       8.91678057       22.94451173       10.54905631
  280      1      20.33721756       24.69467776       16.49343378
  281      1       9.67101799        9.65373436        7.14140814
  282      1      26.73708408        0.81406389       22.28825374
  283      1       1.89878234        5.26130983        4.78635059
  284      1      20.89220578        1.12513084       26.02961483
  285      1       2.59898650        5.86707697       17.61478082
  286      1      22.78787284        7.69677542       14.82759643
  287      1      15.51163066       12.61572612       11.14855899
  288      1       4.37349027       14.68895746       24.25632641
  289      1       1.42122655       10.31063256       24.25957719
  290      1      21.39761156       25.36052621       21.61037705
  291      1      10.38932115       11.23437401       21.56464038
  292      1       4.09313267        4.10889933       16.60739148
  293      1       2.86199088       20.62763378       21.72828339
  294      1      23.42497688       25.69091825       27.20856397
  295      1      20.67295759        1.00868788       19.43083993
  296      1       0.09289995       14.08746854       23.01149727
  297      1      17.84177127       17.54494573       21.25272469
  298      1      14.29186220       15.02859348        0.25869723
  299      1       0.52574321        8.45058474       23.27553558
  300      1       4.76506289       27.10042403        0.58672677
  301      1      19.36223157       25.31733454        8.55365330
  302      1      14.66966578       14.66395279        2.50798860
  303      1       7.26743773       11.06004446       25.64664630
  304      1      17.26739977        4.35033739        1.56414048
  305      1      19.94847841        7.16263112       22.60939441
  306      1      16.71340218       23.92641869       15.57454615
  307      1       4.09347149        9.85237227        2.07172018
  308      1       1.57444461       20.30781227        9.45046628
  309      1       9.50106261        0.81535600        7.11518387
  310      1      24.90245369        1.04648908        5.82127117
  311      1      20.12932958       16.94572140       18.11338961
  312      1       0.72188788        2.96087423       27.44265363
  313      1       3.10577492       10.99402265       22.76754337
  314      1      23.76069229       22.17434973       22.99365258
  315      1       1.36321585        1.64374418       18.73396897
  316      1      14.89633504       27.47017782       17.54715386
  317      1      13.22777068       21.41404189        5.42628076
  318      1      25.71210540       18.98263322       11.89815916
  319      1      24.64222608       18.46939381        9.76494752
  320      1       4.29468546       24.77887613       12.35574256
  321      1       7.77521236       24.33682322       13.63352178
  322      1      12.52159366       17.63839590       24.86869112
  323      1       2.03601687        9.36489039        5.59245457
  324      1      20.30504618       13.01821832       12.28431622
  325      1       9.91519920        0.72155818       19.93897120
  326      1      23.79435157       22.58702653        8.03764570
  327      1       8.36596544       26.46273866       12.86588909
  328      1      23.44697262        5.98522459       11.52036176
  329      1      14.85228783        7.70803348        5.23100565
  330      1      21.39278859       22.42935227        7.94962026
  331      1      23.77555702       16.27492234       13.96472169
  332      1       3.81273255        5.19573048       12.60563148
  333      1      22.55192239       18.78424596       21.81756673
  334      1       0.64059125        3.78266122       21.82674618
  335      1      11.02779994        2.22876754       14.27105797
  336      1      26.35460858       21.20310983       11.74318585
  337      1      19.70746553       20.59792274       11.46876685
  338      1      24.79842919        5.17743266       22.55941171
  339      1      19.88446705        4.38398411       11.01919611
  340      1      19.04976809       19.71201603        7.17612033
  341      1       8.76035588       13.07702843       13.42537695
  342      1      11.47477417       11.04879682        1.94377165
  343      1      18.72102099       19.17120498       27.06369601
  344      1      26.86915200       15.90170336       15.43774216
  345      1       3.52437325       25.85687879       23.94905631
  346      1      10.08692296       21.98661812       19.16948641
  347      1      24.10108798       10.92061638        0.85148691
  348      1      13.47006083        5.11748556       25.08184030
  349      1      25.87854545        8.62897000       13.48171076
  350      1      26.22799903        9.62641291        6.96911293
  351      1      18.22843101        1.12451920        7.28037508
  352      1      26.81953410       22.92157183        3.31502820
  353      1       8.03436431        0.32728991       26.39419660
  354      1      12.95833899        2.30455354        8.26225340
  355      1      19.75144374        8.97967584       25.45813941
  356      1      16.10459377       14.90164327       24.34892684
  357      1      19.75956553       12.46479864       10.03182451
  358      1      18.17785303       13.27755588       19.17190099
  359      1      22.61779164       18.80857803       25.63739406
  360      1      25.93511106       25.31769105        9.89245269
  361      1      15.13635116        4.37337153        0.66349840
  362      1      12.35396858        3.03218671       25.69872235
  363      1      10.16544436       20.39377341        2.74174155
  364      1      26.25278648       24.82755192       12.03789940
  365      1      16.17674825        1.14499480        2.09442045
  366      1      18.99520436        0.73652267       17.78361627
  367      1       6.60516254        6.75285599       24.00652226
  368      1       6.63746542       15.70439181       21.70582212
  369      1       8.35206333       25.90385161       27.54145400
  370      1      15.43846621       20.07514051       18.05444702
  371      1      10.82523643       27.49513075       23.69762869
  372      1      26.88560862        3.72520030        1.40294499
  373      1      23.14542388        5.73439242       17.97760426
  374      1      14.39319017       12.60251354        3.48040699
  375      1      16.83776657       15.46462577        2.98688978
  376      1       6.21521208       14.50424836       19.72372484
  377      1      26.13015167       20.50410558        6.42708468
  378      1       9.04782391        8.36487039       19.79345940
  379      1       3.96362714        7.35827975       13.60669133
  380      1      27.04336773       12.82207945        9.51549846
  381      1      24.64124182       19.93730376       18.28360819
  382      1      12.73446502       22.30365114        9.42820317
  383      1      13.00647011       23.69589169       21.30689748
  384      1      23.91976280       10.50238255        9.81238918
  385      1      18.10489775       11.37693340       20.77137201
  386      1      14.23558053       20.60916345       16.08791502
  387      1       5.82760936       19.69647867        6.19611270
  388      1      27.05774904       19.75393330        0.82242159
  389      1       4.13551838       17.76424549       19.87777264
  390      1       1.04846348       10.94349281       17.34027450
  391      1      11.10301239       22.29391355        1.74015524
  392      1       1.57736130       17.62751445       23.50373263
  393      1       3.76319838       27.29585096        7.07812907
  394      1      26.72263288       21.58814644       15.25054473
  395      1       7.38971791        0.43744958       14.26663952
  396      1       4.54423700       27.12866058        3.06247280
  397      1       5.52624170        3.51072848       13.12299442
  398      1       5.62632258       15.32923221        7.32924905
  399      1       6.32574437        0.02065108       20.87152371
  400      1      27.05035444       17.92423485       16.56467202
  401      1       8.98262526       18.50515223       10.91060202
  402      1       7.91578499        1.29721984       10.24641715
  403      1       1.81039475        4.17705097       13.19987706
  404      1       5.92723442        3.29703480        4.27731740
  405      1       7.43503255        8.26832696       13.04732158
  406      1       1.05356394        7.50784341        8.74935291
  407      1       2.71042738        9.68731438       16.10977662
  408      1      25.31243587        2.23834880       10.41652993
  409      1      19.31753286       26.81038618       10.38162739
  410      1      18.40795595        2.70553329       10.48347733
  411      1       7.56769131        5.38482206       17.91697580
  412      1      18.31960911       17.20727754       25.82371336
  413      1      11.85914177       10.88535837       18.34218010
  414      1       6.13725500       25.20624371        0.21520304
  415      1      14.47417970       21.27200904       23.86381145
  416      1       3.08089272       15.62787989       12.24919481
  417      1      12.21590932       14.22996862       27.13248665
  418      1      21.65968023        1.55863588       10.67875514
  419      1      22.94326728       27.66281118       12.90883840
  420      1      10.70736092       26.42783635       12.68261863
  421      1       6.60199626       10.53958241       21.76869210
  422      1       0.62104057       12.41417595        4.11571132
  423      1       7.77246399        9.77728321        3.83932319
  424      1      19.62843167       23.29834391        9.81045422
  425      1      20.72178291        8.44809214       10.68059649
  426      1      22.38525942       24.11804354        1.01417527
  427      1      17.24421541       20.75025448       26.01784254
  428      1      12.73973693       18.52114593       11.18812345
  429      1       3.42600877       25.08149235       14.75303782
  430      1       5.84834710       12.97181220        4.03890626
  431      1       7.41505428       13.00735689       26.96654863
  432      1      24.90136230       22.91529226       14.61430632
  433      1      22.84891361       22.88321460       11.20333069
  434      1       3.51995148        3.31910419       24.18870590
  435      1       0.70595691       22.85184963       16.42475427
  436      1      21.06761831       25.75612501        6.86616089
  437      1       8.43024627       24.96582706        9.39917921
  438      1      15.96685682       23.76691780        8.75309812
  439      1      12.96290010       25.39471145        1.12438469
  440      1      20.71068728       13.12216847       16.66913622
  441      1       3.83481515        7.94952832       17.14237614
  442      1      17.26853303       25.16331300        7.45393258
  443      1      17.31125799       15.80520623        8.72205628
  444      1      10.14529801        5.05768225        0.86748481
  445      1      15.23595210       14.92476681       11.83218985
  446      1      11.04201046        9.09149558       12.56351156
  447      1       4.37218931       22.28698010        3.79467275
  448      1       5.00318414        7.08812870        6.17932110
  449      1      24.86935680       19.00225726       24.80200795
  450      1       6.48574917       27.33557357        4.41511487
  451      1       9.41687791       27.39138545       17.73076375
  452      1      27.57605236       26.72189786        4.00796022
  453      1      19.63147739        9.31312076        0.06091451
  454      1       1.93232739       22.86357107        0.53584314
  455      1       5.93246341       10.85567991       19.50375738
  456      1       0.55931188       21.62011890        2.00888053
  457      1      17.29966018       11.96280665       17.32376122
  458      1      11.19468044       24.29656574       13.69743643
  459      1       4.63900840       15.20335492        0.69373689
  460      1      22.03174886        3.96428882       12.16969837
  461      1      20.13928779        5.55927757       15.36930191
  462      1      19.81043035       12.86554531        1.86687277
  463      1       4.37834493       11.46806037       15.76542645
  464      1       5.24992373       27.54512074       24.46429893
  465      1      13.08764602       15.12056115       12.93017411
  466      1      23.11164879       22.76700192       25.13465880
  467      1      17.10526668        9.29636891       11.95552704
  468      1      24.60329218       20.20835345        4.68867973
  469      1      21.82385009        2.63344366       22.67460042
  470      1       7.75465213       16.40419073        7.59069358
  471      1       5.42637723        6.86126425        3.88246349
  472      1      25.61073443       11.67090729       25.05091144
  473      1      22.86490662        1.61308640        4.86353987
  474      1      22.49421232       12.00152044       15.41592724
  475      1      27.54176060       21.91692186       22.95717273
  476      1      11.42366670       21.26062149       25.90441676
  477      1      15.71393213        2.25580370       20.24474009
  478      1       7.74043321       11.44662317       18.14621083
  479      1      22.79820891       12.31279556       27.22518820
  480      1      11.88509740        1.27295451        4.53317702
  481      1      12.23426965        4.60268749        8.37697044
  482      1      22.32195908       19.81017762        5.20480892
  483      1      14.48006256       23.02701626       15.50460086
  484      1       6.71101125       14.43453669       23.63103363
  485      1      17.89306911       19.15030599        1.64545208
  486      1      18.70322263       14.96774810        1.71669361
  487      1      24.64217370       24.98926247        6.02862178
  488      1      19.43322507       22.25327132        2.88121751
  489      1      16.12395467        4.83992969       11.66211476
  490      1       9.27108653       17.14570486       16.82636545
  491      1      12.18170955       15.78304902       15.12173751
  492      1      11.88014126       20.34120455       16.45294291
  493      1      27.22142039       15.76118156       13.02220065
  494      1       3.20499484       22.99225868       15.72264189
  495      1      19.09299504       26.11019281        2.12005144
  496      1      17.73517351       22.75030092       18.64999910
  497      1       0.05866025       16.93866537        8.44438212
  498      1      23.46920207       25.10999270       24.94923868
  499      1      20.15062294       27.10985935       24.65063816
  500      1      24.60408782       15.48617849       15.94970777
  501      1      18.88966451       13.35022788        6.32263848
  502      1       6.38869336       21.97444057        2.38041162
  503      1      18.15649648       14.03864883       23.45363853
  504      1       1.68449436       19.35603004       13.61753662
  505      1      22.38073039        0.33477844       15.23740014
  506      1      17.89229903        5.37666958       14.72589518
  507      1      16.03918566       10.05798931       17.99067913
  508      1      22.05677868        6.74212012        9.73090577
  509      1      12.92413175        9.36673456        2.68351559
  510      1      13.84739674       27.54928795       13.54139984
  511      1       3.02658118       15.57967163        4.16545316
  512      1       2.48044300       16.44511705       16.15264934
  513      1       8.66631881        8.08828305       23.83291500
  514      1       7.91876709       16.82753516       26.26033360
  515      1      17.84275384       26.58554231       22.13529372
  516      1      12.74383780        4.77860120        6.11041001
  517      1      13.19253669       23.70639556        4.66849582
  518      1       7.08306994       20.17362943       22.99606597
  519      1       1.36305957       10.18936400       12.56406371
  520      1       9.98459889        5.52574967       18.06886338
  521      1      18.60317643       25.42330763       25.40691317
  522      1      23.21718449        1.99990228        9.04533337
  523      1       3.98688127        5.54261750       10.25871205
  524      1       3.09552309       15.92068665       22.69664566
  525      1       4.09946167       12.24606547       13.54566759
  526      1      16.32947621       17.26826364       24.61956598
  527      1       2.51038751       26.55740443        0.07003712
  528      1      12.86491172       25.98690783       20.59436749
  529      1      20.92705092       18.41552646       14.35667275
  530      1       3.90369059       21.80407355       27.17022729
  531      1       4.64439501        3.36180836        6.24875775
  532      1      14.82060374        8.24333245       12.20512422
  533      1       7.31392057        7.76839603       18.16583353
  534      1       6.50319698        3.33545184        7.63770482
  535      1       4.86305838        8.19127525       24.38526665
  536      1      14.27243232        3.44666911       16.81163794
  537      1       2.72464777        4.21996403       27.22477694
  538      1      23.79227169        6.77555074        3.08981986
  539      1      18.57273696       21.16784053       17.05796288
  540      1      21.09087733       22.63816530       15.38187626
  541      1      23.67884923        3.72253362       19.32151282
  542      1       1.17916506       23.82193911       20.12033821
  543      1      12.88028952       22.99690867       23.61523397
  544      1      13.40436082       23.61104970       13.37632569
  545      1       2.61350206       25.64765473       19.99064876
  546      1       3.04517052        1.62928026        6.04151746
  547      1      24.67303909       11.71056166       22.84729192
  548      1       7.95334324       18.91115122       19.91154205
  549      1      10.88161840       19.43469392        9.94770997
  550      1       4.66163885       22.18866678       24.86897329
  551      1       3.39957422       12.62850961        6.73492572
  552      1      23.88876873        2.38695208       12.66189244
  553      1      17.64041014        6.36499701        2.52549506
  554      1      18.54036307        3.10495953       17.71584766
  555      1      17.54454480        1.81819593       25.19605627
  556      1       6.77797229        3.23329777       22.20502999
  557      1      18.97434527        1.64121984       27.30378505
  558      1      17.79060564        7.94324269        0.80293674
  559      1      23.10578906       23.26306496       19.28972954
  560      1      22.79761946       25.30097132        2.89391239
  561      1       0.08935565        7.40933474       20.09727802
  562      1       7.80538396        4.72655473        1.53469211
  563      1       0.76759720       23.77498035       12.57354613
  564      1      20.28721100       16.71390820        2.14996826
  565      1       7.55607861       11.52759213       12.08359126
  566      1      26.85358176       24.29150290        6.69958848
  567      1      26.69371169       13.09595197       19.74805883
  568      1       0.88263923        2.14472064        7.09535078
  569      1      17.37967251        3.27762834        7.19817528
  570      1      27.39163269       25.00894117       16.01229773
  571      1      20.88713812       22.03212616       25.61087104
  572      1      13.70127215       14.88914840        6.12661952
  573      1      16.91076890       20.35447535       13.49790957
  574      1      25.51101183        0.29555870       17.41241010
  575      1       2.59576590       26.97695109       22.07754602
  576      1       8.89882616       18.79589915       25.52215246
  577      1       6.26952220       24.39985002        2.36487420
  578      1      13.12222264        7.47822172       17.73066793
  579      1      14.56156300       19.62093580       21.87325617
  580      1      15.70334244        8.52655854       21.96316279
  581      1      27.18559413       21.58374938        9.60589246
  582      1      21.22916423       18.75902029       23.74607682
  583      1      23.20841124       23.75945398        4.61705917
  584      1       6.65790765       21.05985044       20.77998976
  585      1      24.43800071       15.96810261       10.12329694
  586      1      20.62143571        6.86608113       24.85297183
  587      1      14.65667474        2.01907039        9.76861410
  588      1      25.86487005        5.80219233       11.16644771
  589      1      13.56268248        9.82100550       15.13402218
  590      1      17.18856535        4.74817400       22.96649914
  591      1      21.35411582       20.22336582        7.36451236
  592      1      18.68284184       16.79785312       12.07159836
  593      1       4.89397681       14.39986808       13.00210179
  594      1      11.07014255       14.74393910        3.12913980
  595      1      20.90313963       20.33785683        3.27261078
  596      1      17.83274538       27.64169486        0.74431724
  597      1      25.37753615       26.79775354        4.65013201
  598      1       0.19222129        4.97182534       17.49139479
  599      1       7.43543548        4.37094693       14.13821025
  600      1       8.88675579        4.42269485       25.07354384
  601      1       7.54498322       14.19913523        3.03983456
  602      1      11.46547278       16.12123180        8.97786256
  603      1      12.02578967        1.87850411       23.65754810
  604      1      17.54749021        4.20193374       25.20172069
  605      1      13.74564488        6.27032408        9.21730294
  606      1       3.54652187       12.22405340       26.48958462
  607      1      17.59306432        1.64697336       12.38532878
  608      1      27.13206117       17.16075706       18.85737480
  609      1      27.61371401       26.65665263       25.03876577
  610      1      16.24371749        6.82685265       15.75876136
  611      1      25.81656496       26.40322346       21.68695326
  612      1       4.48705448       12.72673803       19.42044853
  613      1      19.48401430        9.17266090       16.39885546
  614      1      25.36083520       23.27681461       20.10196343
  615      1      11.54330323       26.52619889        4.81558417
  616      1      18.04102101       10.46546390        9.97294459
  617      1       2.05271636       19.44968925       25.11259997
  618      1      13.68206755       26.14388397       10.17552068
  619      1       9.00771280       20.81526417        7.33416803
  620      1       1.98658199       19.93521492        7.14817401
  621      1      10.71614993       19.85785223       22.20287567
  622      1       6.88760166       22.81841419       16.95422841
  623      1      11.99793094        9.48940425        7.19135990
  624      1       5.71651512        1.00508541       26.66244889
  625      1      16.78458600       15.90769424       13.29274601
  626      1      15.30139149       11.34330110        7.11960889
  627      1      22.65685742        3.90344211        7.80289292
  628      1       5.86180502        4.27561399        9.65939785
  629      1      15.94738387       16.64360788       20.22383105
  630      1      10.62981280       22.02589389       23.40955963
  631      1      16.16959862       17.68420977        2.23181887
  632      1      20.59149612       13.58677887       19.08631395
  633      1      24.35848233        6.39241202        0.73886577
  634      1       0.85999925       14.70758762       16.67908738
  635      1       1.21620818        2.84826345       23.94197748
  636      1      17.86382234       21.98548292       14.90300398
  637      1      16.89455826       26.44576271       26.67234076
  638      1       5.67085241       17.63857103       25.99245938
  639      1       9.15545804        8.85597339        0.14469330
  640      1      23.60003171       22.09198817        1.18478349
  641      1      27.33824995        3.92806725       25.43792895
  642      1      11.03932790        1.20203526        8.94532820
  643      1       9.18713391       15.09596246        4.51723253
  644      1       4.61054145       20.11163471       20.14992928
  645      1       1.38029981        2.70798613       11.15964374
  646      1      14.48535174       27.11636767       21.88694696
  647      1      19.32262182       13.75163131       25.53877933
  648      1      21.33152260       15.77177364       27.46286156
  649      1      12.31512859       15.22359020       24.88360465
  650      1      21.42337075       18.41487638       16.70034169
  651      1      20.09544818        6.53910564       19.06693126
  652      1      26.90606821        9.68103243       11.72333361
  653      1       5.23457285       14.02442682        9.29468294
  654      1      25.28522754       12.04369127       18.19278058
  655      1       8.06736845       20.85512120        3.61398532
  656      1       2.03953760       12.76045651        2.26927458
  657      1      11.97173832       13.03604715        5.96380346
  658      1       6.66109054       16.02870104        1.82772546
  659      1      26.19389817       20.36383612       26.28277049
  660      1       7.86687461       22.65714654       19.07194101
  661      1      16.26179118        7.55100198       26.68129755
  662      1      19.40089538       18.53354409        3.35611678
  663      1       0.94005993       16.22424733        0.74395558
  664      1       1.23403962       25.38490346       14.17970077
  665      1      17.15632207        9.79214686        2.40989358
  666      1      14.95063855       14.52977762       17.56470168
  667      1      12.03967964       12.61516354        3.61444848
  668      1      13.01628608       19.87360863       12.99306863
  669      1      21.13058153        9.08896660       22.08424713
  670      1      20.74762351        4.97660463        8.84712656
  671      1      24.05234038        7.55022545       19.19319817
  672      1       8.58362520       11.76215600        6.84381073
  673      1       7.54984968       13.63461776       15.31158574
  674      1      16.41496593       27.29638532        7.48905870
  675      1       1.55009310       12.83693069       10.26174725
  676      1      25.68073402       11.56087727       10.93548162
  677      1       8.26719026        4.80883866        7.12882291
  678      1      20.40384482        4.73095652       17.58356917
  679      1      10.44438677       18.59739514        0.96104032
  680      1       1.91663932       22.75694078       22.06632559
  681      1       3.37108791        2.44950311       19.71598451
  682      1      12.67642263        8.62651996        5.03635716
  683      1      19.90053630        1.95345381       21.60280022
  684      1      15.32981653       23.83118299        3.77836846
  685      1      23.28816721        9.75039362       15.90762607
  686      1       2.30630465        8.79502430        3.27293394
  687      1      22.46142250       10.16023079        2.57750428
  688      1       4.22453448       12.30485713       24.28526933
  689      1      20.74895488       26.24519361       12.35947523
  690      1       5.28481104        8.62624618       18.86193240
  691      1      16.87133068       15.39758721       18.49084565
  692      1      20.97265166       10.23320341        7.22334900
  693      1      15.61243379        5.28599093       26.21427332
  694      1      18.99055756       17.81790388        5.76822697
  695      1       1.88201173       25.50130518       25.66978333
  696      1      21.36542798        6.52280393        2.16334513
  697      1      23.52270278        8.15495317       27.10776814
  698      1      19.02915854        0.66893938        5.16089503
  699      1      20.99651595       11.78578805        3.65574987
  700      1      23.47582017        8.32131821       21.61893826
  701      1      21.15353495       27.56166752        5.20327801
  702      1      25.04071373        8.75385034        8.76370201
  703      1      10.70431970       23.10396487       21.07488009
  704      1      10.53827227        6.75698875       12.09727906
  705      1      23.12264370       21.52710576       14.95365817
  706      1      19.26353163       15.84206008       22.05036429
  707      1       3.76729867        4.74219989        1.58221607
  708      1      10.76735111       26.75792147       21.40965311
  709      1      14.99402583       19.31371415       14.33514337
  710      1      16.40877871       27.59077601       20.59697702
  711      1      23.27138390        4.45531520       25.58673713
  712      1      14.52050591       17.39022008        0.44144034
  713      1       8.67728739        0.56519261       24.12400022
  714      1       5.45157252       17.71259328       14.60344226
  715      1       2.41778500        6.52025016       19.87965611
  716      1      16.30101327       20.07918347        9.78816965
  717      1      10.16375210       18.97542043        6.30426381
  718      1       1.37617847       27.55816471       13.38658425
  719      1      11.34335449       10.70514280       25.46861973
  720      1      25.48683914       19.58137723       15.95563124
  721      1       1.98721583       20.02103132       18.04031173
  722      1      19.15127735        2.60064849        3.81521132
  723      1       3.70567743       10.06708643       27.34002456
  724      1      24.04113288        4.78490188        4.28863908
  725      1      12.29855596       11.82591529       27.41368957
  726      1      10.08407832       13.37445205       20.26413670
  727      1      23.34534334        8.83496831        4.29748011
  728      1      13.73169137        1.92660561        5.98278537
  729      1      23.43616807        7.28707779        7.92211911
  730      1       0.11613116       16.05097287       24.36974276
  731      1      26.70975526        2.60537250        5.64391073
  732      1       0.39458601       21.20640575       25.12452882
  733      1      26.25028742        4.40383582       19.25638658
  734      1       7.22721817       17.93563252       17.86166348
  735      1       1.47415705       11.57783261        6.02856585
  736      1      19.22948326        2.07497595       14.20818866
  737      1       7.72347039        1.84285457       20.38767964
  738      1      20.97274058       14.34811222        6.47216616
  739      1      12.90858868       11.55037049        7.50478875
  740      1      13.77056723       18.66739190        7.78313245
  741      1      23.19101159       14.51648571        2.87217327
  742      1      19.12734104       11.49415523       15.95267946
  743      1       8.24115704       13.62614051       18.82844166
  744      1      22.91254306        6.78446120       25.23017341
  745      1       7.04541039       21.79972542       24.68023142
  746      1       3.36824424       21.35237329       10.62114409
  747      1       0.94232912        0.49092512       23.47163196
  748      1       6.09809933        8.70990236        2.56793897
  749      1       5.70801839       17.30044421       10.81084299
  750      1      10.00830216       26.21142756        6.55716666
  751      1      18.50712156       19.50477835        9.51944849
  752      1       9.17000172        1.73959223        0.08266825
  753      1      22.65143385        2.59028526       15.75000519
  754      1       3.76129915       20.27946200       23.85250567
  755      1      15.75396937        3.36024619        5.43699121
  756      1       7.12355340       18.84325959        4.41487343
  757      1      23.13032151       17.05902659       27.12101866
  758      1       3.81316324       20.24956910       12.69467706
  759      1      25.60075146        9.63073067       26.45252240
  760      1       8.83378214        8.97865120        9.42199089
  761      1       0.15189375       17.96552399       12.24575842
  762      1       3.15655447       17.18366032       13.98428175
  763      1      10.99819114       19.68850033       14.38659327
  764      1       7.58745984        1.60265665        3.76164834
  765      1       2.60524815       15.00678122        1.96259765
  766      1       3.73205742       17.74074402        4.11733164
  767      1      19.11482856       18.66121898       19.57441900
  768      1      14.58779448       18.11550082       25.88423731
  769      1      18.54542582       23.00453444       20.85120626
  770      1      17.12422462       16.50436861        6.51775358
  771      1      20.69652209        8.83660834       18.42335198
  772      1      24.39894464       13.16214824       16.26479790
  773      1       8.67282363       23.39424742       24.16466517
  774      1      14.02623749        1.90659388       18.61771278
  775      1      20.12132689        2.67659857        1.55414646
  776      1      10.48881963        7.19914304        9.76360467
  777      1      20.58640738        5.53859856       21.12227648
  778      1      15.61070533        2.88230936       12.90834295
  779      1      13.29235854       11.82843747       11.16816762
  780      1      19.45564662        9.08597408        8.74623010
  781      1       7.42849601       26.92161203       16.24137202
  782      1       4.82544017        7.70370114       10.06381255
  783      1      24.52349282       26.78980632        2.52601199
  784      1       3.86499095        7.17697773        0.31513803
  785      1       3.69969779        5.14688621       22.85989079
  786      1      13.60132504       23.58670822       17.65016466
  787      1       7.26237454        6.92572802        6.86746145
  788      1       9.79995475       13.70387993        6.34143415
  789      1       4.95395661        1.92830510       23.17258895
  790      1      27.23052565        2.13771744       20.25915991
  791      1      22.08937511       15.39075407       10.05344519
  792      1      21.52891402       13.49932552        8.67241291
  793      1       6.50404423       12.01329618       23.64282089
  794      1      23.96901416       12.20685332        6.04846235
  795      1       6.13583065       26.16434923       19.19837884
  796      1      27.46970745       25.04746113        2.40561976
  797      1      25.02094040       15.17148832       12.29906565
  798      1      25.71403628       13.66659235       21.92532233
  799      1      15.13183134       25.40727012        2.15727286
  800      1       4.52453347       14.24481684        5.42944577
  801      1      10.10868793        6.22205587       24.04737696
  802      1      10.71175697        7.49279207        4.36392540
  803      1      26.44353433        6.50226197       16.40428336
  804      1      20.06055388       20.85931719       23.68081728
  805      1       9.50067895       22.95635334       12.89660662
  806      1      21.07921148       23.59136685        5.92938733
  807      1       1.78167147        9.18455434       26.38871857
  808      1      10.75687265        3.41066868       17.70457902
  809      1      21.06898710        3.65268537       14.30119979
  810      1      21.00652215       20.08941660       26.95562783
  811      1      27.48131068        6.34162664        5.07863097
  812      1       8.51510338       17.02684298       21.52389103
  813      1      15.89857584        5.96668826        8.22744624
  814      1      16.54327155       11.82525556       26.78433692
  815      1       8.33328701       14.68880654       25.28907423
  816      1       7.59067733       24.67736833       22.53039856
  817      1      26.38196194        7.89702494       24.78459600
  818      1      14.55153609       10.95738675        0.05243975
  819      1      11.68780987        3.03424368       12.17544797
  820      1      10.85216530       12.38287768       14.42718793
  821      1       1.64666720       18.20820198       19.55177100
  822      1      13.77795699       21.02206448        7.65923118
  823      1       0.74495607       11.35038460       19.84778642
  824      1       0.76638422        3.63192034        9.00880055
  825      1      10.30078610       14.70946069        0.91820616
  826      1      27.41421998       23.87510033        8.90253580
  827      1       6.17870274        5.23484770       15.96679165
  828      1       0.83670157        0.95231591        2.90304584
  829      1       5.90467287        5.63803422       22.05041315
  830      1       8.84468234        9.63280125       11.77424211
  831      1      26.65403414       10.88749973        3.45604600
  832      1      19.62325267       11.24481160        5.49555079
  833      1       2.21948271        5.43912052        8.66159528
  834      1      15.52279511        0.01511892       15.22546045
  835      1       4.13935994        0.89855137       21.29769265
  836      1      25.88485037       12.24236364        1.69159880
  837      1       8.38338549       24.61026187        5.70851894
  838      1       2.62457827        4.44822243       20.92071810
  839      1       8.04697446       24.59701187       15.90322727
  840      1      22.00396543       26.70840313       19.78546741
  841      1      22.21617511       23.18074928       21.45829956
  842      1      10.30040812       15.35610805       21.63092290
  843      1       5.23233840       18.80221202        0.41381199
  844      1      12.27953341       10.18211429       20.46480295
  845      1      24.96392111       15.67232907       26.60205808
  846      1      13.27220100       24.81117690       24.94766904
  847      1       2.23842023        0.52762481       11.18541884
  848      1      24.32018928       15.52274246       22.73325870
  849      1       5.90324429       23.22518234       12.79102814
  850      1      19.14846707        7.95484362       12.46933947
  851      1      17.50361065       21.45307049        1.81102642
  852      1      15.66464401        2.41097291       15.21651259
  853      1      16.72293176       10.68386655       24.64410540
  854      1      15.33411232       13.21008877        5.57670256
  855      1      11.67836995        2.34339465       19.61657723
  856      1      11.41720637       22.56211132       17.29323650
  857      1       1.90872853        8.48084142       14.14959614
  858      1      23.17265565        0.75643325       22.83916839
  859      1       6.86219432       21.05323311       15.42192108
  860      1       9.12193504        4.31785236        5.08231213
  861      1      10.46802719       24.37234049       15.96361501
  862      1       3.41911987        5.32536521        6.58738547
  863      1      14.25377284        1.49473891       23.21366176
  864      1      20.20210915       10.24199953       20.27716652
  865      1      18.52813275       12.40666116       13.77534189
  866      1      27.24261497       26.35287900       17.89372083
  867      1       6.92080330        8.19112938        0.36845135
  868      1      11.11286482        5.26670280        4.52252692
  869      1      22.73174330        0.28527023       27.21900091
  870      1      23.39737591       16.96009754       17.37540495
  871      1      20.95862916        4.69372515        0.59649629
  872      1       5.27040041        8.62078537       12.14902567
  873      1      25.00184215       10.06674434       21.27907803
  874      1      13.87274642       16.37803480       16.62486531
  875      1       3.41359102       17.01478412       10.19241565
  876      1       4.39381262       15.24880780       16.74504778
  877      1      21.85465780       13.81414940        0.99721187
  878      1       2.98222463        0.85767208       14.81892703
  879      1       3.13973084        6.48336695        3.23802807
  880      1      26.15201166       27.64627826        9.25958406
  881      1       6.77782420       11.32257914       15.98509627
  882      1      15.10429303       18.44032403        4.21471880
  883      1      22.94337701        9.28480456       18.16268759
  884      1      13.82022945        5.81442631        1.94975529
  885      1       5.27379045       26.31685265       10.82824039
  886      1       2.71095952        7.03941253       23.96843925
  887      1       0.40876687       27.65720565        7.85615831
  888      1       1.97551038       24.55335120        9.13072231
  889      1      18.82001041       17.23347449        9.78948420
  890      1      22.46952042       16.70233460        3.05407668
  891      1       1.50930242       15.51070564       26.28439176
  892      1      12.25224917       16.60359216       21.02823011
  893      1      13.66491104       21.87278277       11.76354592
  894      1      25.88349299       25.74237602        0.59050951
  895      1      12.15558241       27.19238190       27.41362897
  896      1       2.85280542       13.82188552        8.66490684
  897      1      19.55390593       26.05439700       14.54556452
  898      1       2.98358495        8.86114197        9.11414454
  899      1      22.79293493        4.39778823       21.42263636
  900      1      25.23984888       26.60051927       13.31031450
  901      1      17.52135909        7.22191137       22.93264568
  902      1      20.81309293       23.90812950       11.80431148
  903      1      17.16262889       25.90214684       14.41795078
  904      1      26.65313864        5.97802128        0.85782363
  905      1      17.74304253       14.38234484       14.77329693
  906      1      14.26046849        8.75660062       27.02365744
  907      1      17.12829327       26.88848500       18.35901088
  908      1      23.91507589       27.59126281       20.77221742
  909      1       0.61953731        2.80479637       16.73483780
  910      1      11.31997588       26.48058808       16.64133783
  911      1       9.58544761       26.09169468        2.08215281
  912      1      26.75419478        7.84590066       10.17998722
  913      1       6.05942136        2.49820895       10.97336196
  914      1      20.39455670        7.80841249       14.65113919
  915      1      22.05776247       26.44306475       23.57569837
  916      1       6.76137678       11.32220262        5.40478162
  917      1      24.57922676       22.19007216        3.35216146
  918      1      22.20583439       20.21311364        1.32059744
  919      1      26.50650065       10.08985792       17.36599205
  920      1       5.37762382        7.36312215       15.50872444
  921      1      11.31497611       12.09754379       23.54766933
  922      1       8.90923752       20.89647878       13.96764315
  923      1      13.56210861        5.23274861       22.61834202
  924      1      17.52050481        8.50814285       24.94483191
  925      1      17.28377479       24.51868969        5.17120268
  926      1      26.11705424       15.01035244        8.67123066
  927      1       5.73388656       18.81457275       12.56990631
  928      1      11.70355121       27.63400371       14.47759974
  929      1      16.48175690       12.02225304        9.06189638
  930      1      13.64246716        1.26266357       26.74739032
  931      1      17.60094681       19.21161028       17.76029890
  932      1      19.64954712        1.15268279        9.32095333
  933      1       3.50848991       13.09830670       17.27449086
  934      1      20.02236607        4.40266789        5.03684085
  935      1       2.26480761       26.92296923        9.06475890
  936      1      20.96040417       15.74799535       20.14429919
  937      1      15.46724369        7.26400253        3.08891044
  938      1      14.91755295       10.62106531        2.32377367
  939      1      22.40305897       11.95748941       12.96640253
  940      1      14.69255838       11.80641538       14.41552945
  941      1       8.14849099       22.19240549        5.57529260
  942      1      15.70579634       17.17382667       15.15005507
  943      1       5.71463285       21.97748618        5.75407024
  944      1      12.63154487        7.78777019       19.97489435
  945      1      12.23482885        2.12121859        2.36236671
  946      1      26.11542571        4.26041932        9.44528136
  947      1      15.43383597        0.51266367       25.32430896
  948      1      12.51598406        8.27319092        9.19203062
  949      1      15.42943179       22.30176653       18.78147432
  950      1      21.35364043        3.21786048       24.94431876
  951      1      25.25648026       20.72623820        8.53155923
  952      1      10.38492272       21.65679574        9.21078499
  953      1       8.68781012        9.49243154       21.83216582
  954      1      18.02802542        7.48529401        7.47158930
  955      1       9.99629033        2.73435419       10.36923330
  956      1      23.67883248        8.02466276       12.75744246
  957      1      21.03609262       15.19620100       25.18548324
  958      1      13.45206287       21.70722389       27.04539761
  959      1      13.61848584       24.44440167        8.59048043
  960      1      15.17939117       15.95825779        9.73511849
  961      1       9.65872233       13.40238499        9.94012146
  962      1      21.04632179       17.13104343        8.93984785
  963      1      26.94234246        2.40043878       12.21890622
  964      1       6.10853965       27.11959335        6.83714228
  965      1       8.63009281       14.69338675       11.73225737
  966      1       8.00335161       20.87582910       26.58539123
  967      1       7.39412357        8.92379739       15.47059888
  968      1      18.36406260       11.27636640        0.75339580
  969      1       4.51160730        7.52627277       20.72635434
  970      1      11.75057637       13.20121610       18.54528083
  971      1      26.29046031       21.22196519       19.47674647
  972      1       0.31457929        8.11806630        6.57038687
  973      1      18.32312340       11.68201589       23.11181587
  974      1       4.62326489       22.93818111       17.64198972
  975      1      11.24412188       10.04848518       14.67799554
  976      1      25.06734907        1.46312177       24.02384431
  977      1      19.76357590       22.41049100       13.40661366
  978      1      25.90730424       12.30931370       14.72759180
  979      1      17.18446205       27.25264846       11.17998093
  980      1       0.93946032        0.67750180        0.53463368
  981      1      14.16859868       11.59347510       20.74000013
  982      1      23.23635809       25.89875570        7.70426175
  983      1      15.15892167        3.45728412       22.26508971
  984      1      24.21769649       13.48536249       25.83304694
  985      1      12.80114505       17.37075692       18.69040619
  986      1      25.83391795        4.78906574        5.75498421
  987      1      14.85117018        5.76469593       17.37201061
  988      1      11.55431268       19.83061183        4.61142408
  989      1       4.59058223        2.74704962        2.47293538
  990      1       8.60708184       17.31090000        5.52903172
  991      1      25.79440095       13.61197432        6.52240678
  992      1       3.94524114       23.66492002       23.14238045
  993      1      17.58272993       16.96235485       16.76838221
  994      1      13.31507750       25.50503280        6.27192662
  995      1      22.36297613       13.33884506        4.75429028
  996      1      24.49766841       18.55168028       13.87135517
  997      1      19.20683890       25.24408077       20.87819721
  998      1      12.26648241        5.31992133       12.55966925
  999      1      14.30892801        2.16151803        1.08710619
 1000      1      18.07410702        9.64944081        4.69998251
