run_id:  1004
total_energy:   -3028.6252939653564
  1000 atoms
  1 atom types
  0.0   27.664  xlo xhi
  0.0   27.664  ylo yhi
  0.0   27.664  zlo zhi

 Atoms

    0      1       0.03026943       18.74721576        6.76782593
    1      1      14.68409208       18.61605001       19.59594949
    2      1      19.85793878       15.24318756       15.88160136
    3      1      17.40217573        8.35926297       17.16913455
    4      1      12.88080115       12.82352117       13.34438593
    5      1       8.84262663       16.64460013        0.76085100
    6      1      13.87000624       23.98782884       26.95760492
    7      1      24.73601682       22.88164467       12.50954927
    8      1       0.64990599       26.00683065        6.12303539
    9      1      26.76694516       27.53268965       27.07860791
   10      1      26.26944991       24.03016104       26.52341187
   11      1      24.72907546       12.82951141       12.65368542
   12      1      12.02615591       16.24610759       11.53386913
   13      1       8.77637752        2.83712314       23.39995502
   14      1      22.30774848       12.21891593       22.83632400
   15      1      16.03852386       21.61400189        8.00914761
   16      1      22.73160855       17.42840876        5.21697004
   17      1       5.63443079        9.37990452       26.32616440
   18      1      25.00298816       10.29254825        5.08298956
   19      1       8.64426439       12.92098867        1.26769056
   20      1      25.64418584       18.09107688        1.77916284
   21      1       2.97758619       23.63797521        7.21523384
   22      1       4.98613853        2.32916971       17.96640303
   23      1      10.41873240       14.34635814       23.86977207
   24      1       0.40434127       14.89460389       19.06330228
   25      1      27.41905501        9.47510984       21.20183661
   26      1      12.92467003       18.21442877        3.59644001
   27      1      22.34436318       19.10483915        9.29341869
   28      1      17.72608800        3.25471212       15.57236994
   29      1      27.30282851       22.37482669        5.60786584
   30      1       4.78916651       21.72805880       14.22060965
   31      1      16.69543131       18.83914391       22.83669885
   32      1      16.95457737        2.94127966        3.35619563
   33      1       9.80641067       16.63851160       12.28632415
   34      1       8.22850500        6.08823957       12.54004942
   35      1      15.74171481       27.19973407        3.58158533
   36      1      10.63800748        6.59162375       20.12284660
   37      1       7.06163253       26.95037572       23.02398663
   38      1      21.88743864        2.75031736       18.08610244
   39      1      10.73152547        0.53749286        1.29582101
   40      1      10.81816579        7.14915848        0.00453045
   41      1      10.64116470       25.34377986        8.64108444
   42      1       4.49100510        0.65854034       11.49703931
   43      1       8.93009657       18.70372345       23.23093696
   44      1       1.35367417       13.15343327       26.42428569
   45      1      23.73150292       11.00079910       19.49885272
   46      1      14.37098230        7.67206992       14.48686050
   47      1       6.62329975        4.99873087       25.71317980
   48      1      14.99049691       20.38795591       25.88546758
   49      1       9.77277147        4.84161957        8.97527494
   50      1       1.39621143       18.50492659        1.07334449
   51      1       7.37636809        2.40460817        1.30425116
   52      1      24.54256257       19.92982836       22.67651357
   53      1       0.17582747       21.45861400       13.43270241
   54      1       6.88896820       21.89513323       11.06008842
   55      1       4.72837511       24.47245550       19.55529220
   56      1       1.89264764       18.82285194        3.35594240
   57      1       5.75236472       11.75277730        9.30271001
   58      1      27.17772530       11.73192900        7.36570331
   59      1      23.34990204        4.41371465        0.21159575
   60      1       2.38771765        3.04505334       15.24946893
   61      1      18.79962436        0.72705565       23.30725891
   62      1       8.11821967       11.70648239        9.28090333
   63      1       5.42900115       27.60469862       17.35955755
   64      1      20.47441903       21.77992007       21.55283087
   65      1       7.08261328        5.12550640        3.63009591
   66      1      15.98639574       13.23077057       15.97765552
   67      1      24.44635848        7.22112912       23.55267338
   68      1       0.19310521       12.27624422       24.61431293
   69      1       7.16685114        3.00596648       18.44750060
   70      1      10.41697415       17.37467909       14.60938191
   71      1      13.74976766        9.71455186       17.37109601
   72      1      13.32235903       21.12027503        1.53644999
   73      1      24.86402129        3.52418334       14.77046740
   74      1      26.35103404        1.83257916       15.78199950
   75      1       2.66760526       10.67546757       10.63837597
   76      1       2.58892518       23.55056928       11.18696109
   77      1       7.73920166       19.95144253       12.14839943
   78      1       3.86008746       16.83886666        7.79470081
   79      1      23.72111356       26.58055350       16.60618456
   80      1       6.99335807        7.53398360        9.04203169
   81      1      18.82141694        4.00616080       21.37201579
   82      1      11.06770571       18.96313047       26.27128072
   83      1      14.75557390       27.42378521        5.79872164
   84      1       0.77161227       21.95118316       18.57702222
   85      1       5.66629404       17.97397732        2.76602251
   86      1      26.87870006       25.13185756       19.92543981
   87      1       9.60320991       14.97802356        8.01258257
   88      1      25.29117469        3.78681177       24.48013059
   89      1      24.21774549        5.80193061       15.85786704
   90      1      11.77838439        4.50906349        2.43537424
   91      1       0.56108161       12.56717837       15.63554076
   92      1      20.00802919        0.46715773       15.61346870
   93      1      16.11660267       10.25458252       20.35881575
   94      1      22.83526061       14.21512244       24.06014992
   95      1      17.75050894       20.82675876       23.69792839
   96      1       9.94827240       19.57339568       19.91220793
   97      1      12.98004856        9.47631174       11.25816392
   98      1      25.51940443       10.07473032       15.27083387
   99      1      27.53234518        6.22337818       26.30469093
  100      1      22.75808763       11.60925786        8.03032144
  101      1      15.03559744       26.03261129       23.97748262
  102      1       9.00261119       14.67755910       16.86315068
  103      1      18.93662145       22.90675193        5.00804210
  104      1      17.89578885       26.51552617        4.08585774
  105      1       2.91759645       25.45205503        5.79833090
  106      1       9.69922017       10.00933945       18.14914028
  107      1      11.20764616        5.35574303       22.13509000
  108      1      23.78617261        1.43090889        2.60118050
  109      1      16.05135821       24.52376856       27.63328900
  110      1      13.87719790       13.62989774       19.49975802
  111      1       1.79029175       15.69731996        7.49006661
  112      1      11.10691497        6.92813673       16.52325045
  113      1      12.87227193        7.75923005        0.99347342
  114      1      23.72741459       24.40343407        9.51103515
  115      1      17.11129956       14.59481769        5.23482933
  116      1      19.85503044        4.87601848       25.94000828
  117      1       8.67103449        2.41105522       14.70704094
  118      1      18.93993239       19.04667408       12.97820316
  119      1       8.89735885        2.16657529       17.04734446
  120      1      12.55619774        5.90020319       14.81189965
  121      1      18.14420601       15.15884078       27.07616089
  122      1      26.94932063       14.25103683        4.60144287
  123      1       5.86545971       19.22427905       16.49350227
  124      1      14.48105693        6.79461653       21.05249053
  125      1       2.63532325       12.32319266       20.88970361
  126      1      19.64281784        6.30670853        3.74211432
  127      1      11.13474466       13.92751851       16.31690594
  128      1      20.91680206       16.67386392        6.55431455
  129      1      14.95235962       22.22020287       20.92269256
  130      1       5.05064787       11.00045925        7.09499448
  131      1      14.90282181       17.26026716        6.21260501
  132      1      25.04405192       25.14076124       15.29033924
  133      1      16.87248383       22.74851189       22.46372282
  134      1       5.22634499       23.19216426        7.67249411
  135      1       6.07069765       20.98422709        0.36318287
  136      1       9.51109911        2.01814164        4.96870977
  137      1       3.02231592       19.45335839       27.33280457
  138      1       6.30015267       15.01480980       11.20623535
  139      1      12.94570390       15.87286720        3.73145956
  140      1       9.61730674       24.48454732       26.13051706
  141      1      26.82594478        0.63155079       13.78214142
  142      1       9.16539281        9.68304261       25.61716498
  143      1       3.88166489        9.00461809        6.88219655
  144      1      16.96692217       23.50258974       11.04025332
  145      1      21.61923870        8.59966001        1.02597539
  146      1       1.83236043       21.86943881        5.97236643
  147      1      11.44614880       26.90705030       10.24444540
  148      1      13.75585349        1.85678716       11.98247946
  149      1       7.35814623        1.17725285        7.90385116
  150      1       0.39231358       12.14004250        0.61218300
  151      1       0.08907380        9.14179024        2.41147151
  152      1      15.46240836       20.64074729        4.74042978
  153      1       7.80343583       25.62399234        3.65493216
  154      1      14.09497531       14.38312761       23.39261516
  155      1      24.79445848       17.63303682       19.27240096
  156      1       2.08800812       24.89412848        1.71504999
  157      1       8.73132135        8.29436785        5.45635156
  158      1       1.28094336       14.17130779       12.24320579
  159      1       2.11742466        6.89152335       26.38352870
  160      1       4.34842930       20.58167010       17.95667846
  161      1       5.50327811       16.27662839       18.47076562
  162      1       5.05319618        1.14092691       13.77393188
  163      1      27.45130445        7.07631900       14.33580451
  164      1      12.84446661       15.11123908        9.58266342
  165      1      19.43871668       23.58451323       26.69736152
  166      1       5.84695800       15.25029491       14.89431350
  167      1      10.99426453       18.67710607       17.95573606
  168      1      14.69175295       18.31105544        9.86120936
  169      1      26.60371131        7.23539843        3.02589744
  170      1      11.51927425       24.52496461        2.76148430
  171      1      20.63557293       15.34826158       12.06425198
  172      1       7.39307101       17.92822591        9.26791364
  173      1       1.75147780       14.45873806       21.29343046
  174      1      16.31346630        9.24031494        6.32629700
  175      1       2.25397955       21.12174393        3.71520219
  176      1      18.09422995       13.57018744        8.56020982
  177      1      25.76908932       23.30873664       22.59239804
  178      1      11.55576647       18.20146076        7.92816976
  179      1      25.56140874       18.06432812        4.06042276
  180      1       8.33796636       25.48011878       19.02482747
  181      1      22.66262686       21.01079399       18.74328391
  182      1      15.40958606       21.76703242        2.74212205
  183      1      21.13596146       26.87451463        2.92965039
  184      1      24.98340605        1.47266444       19.38879649
  185      1      21.91085117        8.33392425        6.16307072
  186      1       0.85401671       23.34482580       26.25391559
  187      1      12.59127441       18.41075847       22.57567394
  188      1      17.45873575       22.59644353       27.38803274
  189      1      14.91810641        5.56702143        6.08161232
  190      1      14.21212567       25.60738395       12.37950024
  191      1      10.81297710        3.09467172       22.01295276
  192      1      25.76860498       25.25858622       24.06718779
  193      1      21.81236712        0.98253258        1.60856875
  194      1      10.27157818        3.55138785       26.73845333
  195      1      18.07033292       24.75263763       17.50226065
  196      1      21.34586157       20.64493158       16.92987719
  197      1      16.47356464       25.43147750       12.33405438
  198      1       3.40227379       26.88503697       16.42682798
  199      1       1.21926000       18.07417543       10.21166140
  200      1       3.97961588       15.92100620       26.21834897
  201      1      16.03088524        5.80050440       19.41057198
  202      1      21.96913908       20.54144327       11.21774465
  203      1       3.76149875       24.85263845        3.48681716
  204      1      18.29442616        5.70809698       12.34005665
  205      1       9.15245706       10.57803843        1.87817169
  206      1      26.80589534        5.50909702       21.30355134
  207      1      26.27233675        7.92032838       18.31489740
  208      1      26.87711314        4.87561522       13.20341015
  209      1      12.94782227        8.98754510       25.11957359
  210      1       4.70086652        9.27384359       22.36114427
  211      1      24.80925494       22.19726952       26.74674709
  212      1       0.18001177       17.85528096        4.69514037
  213      1      23.20508313       16.69061498       20.95152911
  214      1      13.20521141       25.96129830       18.10973868
  215      1      14.16240636       15.29283320       21.18068151
  216      1      26.26347665       15.96167722        0.99118765
  217      1       4.87311895        3.18978059       26.42825429
  218      1       3.81116967       18.62884581        6.35392407
  219      1      20.48993536       10.71597428       23.79349035
  220      1       9.92124270       22.36031961       27.26394662
  221      1      11.38879352       26.01248180       25.47086432
  222      1       1.74186205       12.30037101       13.60312140
  223      1       9.79480544        8.87135743       16.11620136
  224      1      17.30636036        3.80588972       19.58345062
  225      1      16.56740303       11.40761120       12.94051249
  226      1      25.54140065       14.39055037        2.60726897
  227      1       6.15025142        5.96952646        0.13465885
  228      1      13.66438505       12.06872592       22.99888305
  229      1      26.76984216       20.19635499       21.61709013
  230      1       7.62479419        5.61391584       10.26179899
  231      1      22.43325223       19.84227217       13.50386686
  232      1       4.38224506       12.15115662        2.34752300
  233      1       1.18358663       19.02231796       21.63456966
  234      1      21.37454727       16.11665588       14.10650344
  235      1       1.80961189       27.04183614       18.22389991
  236      1      17.06180126       24.92761019       23.59684803
  237      1      20.07147799       24.01902430        1.27665610
  238      1      14.21640081        6.11145930       11.43810431
  239      1      22.26462276       25.20747053       17.92499012
  240      1      14.67838428        9.96831773       23.68888140
  241      1      19.52945564        7.84573263        5.41330295
  242      1       5.40479735       18.64742049       23.77758015
  243      1      24.85721278        2.74068315        0.89725013
  244      1      12.07088201       12.85667674        9.59580405
  245      1       6.88706694       24.96354787        7.51754090
  246      1      19.00538806        5.07730673        7.13590432
  247      1      12.17574174        3.67724656       15.82538141
  248      1      22.53352732        9.82320499       11.62747411
  249      1       1.44215821       18.84879932       16.12627182
  250      1      16.08880048       14.16341533       26.59494303
  251      1       3.00527385        1.14639634        3.76583322
  252      1       5.16702106       13.09078378        0.27650553
  253      1       5.82437375       23.45167135       21.48916298
  254      1      11.84380942        6.84864435       25.48559471
  255      1       0.99024988       15.74849658        5.23271345
  256      1      24.26322547        0.28699117        7.87771532
  257      1      24.64217089        5.17452419        7.77362443
  258      1      15.48051512       27.57929409        9.57263107
  259      1      23.38885084       18.14968423        1.42959251
  260      1      21.19350597       19.96787288       20.30538544
  261      1      25.54994378       16.70078886       24.54562181
  262      1      24.91785463        1.25899132       26.63887906
  263      1      19.96301361       16.88999476       24.07772452
  264      1      12.84621027       18.75836224        1.42012375
  265      1      17.49969112       21.22014116        6.11223451
  266      1       7.55571024       26.65543412       10.72783756
  267      1       9.34859835       25.06586862       21.09120223
  268      1       6.95886498       19.93312944        8.21822759
  269      1       5.43220256       21.49854899        9.33360966
  270      1      16.37459031        3.66718042        9.43633536
  271      1       4.90785030       10.92441976       11.64542735
  272      1      21.79719479       12.00628649       20.42411398
  273      1      15.99245994       21.49445554       11.68719230
  274      1       0.01187364        9.82502104        0.13619630
  275      1      22.25910402        3.79160254        5.48844668
  276      1      17.81639272        7.27209967       19.17580740
  277      1       4.89238187       17.11100347       21.99589920
  278      1       8.92760896       22.90546351       10.53514528
  279      1      20.26854458       24.80370102       16.37111088
  280      1       9.62335591        9.65154886        7.14240728
  281      1      26.78211736        0.83180054       22.32268709
  282      1       2.00038375        4.97320407        4.27137291
  283      1      20.92199045        1.13649132       26.02614352
  284      1       2.60802637        5.84465603       17.64708193
  285      1      22.79825748        7.69855743       14.83567399
  286      1      15.51373115       12.61594061       11.20558906
  287      1       4.37138816       14.66460469       24.28418913
  288      1       1.44010286       10.28446043       24.32288284
  289      1      21.44770562       25.37814514       21.60774276
  290      1      10.39832702       11.21959113       21.57354288
  291      1       4.09079517        4.10037460       16.60527407
  292      1       2.95528909       20.60563754       21.71154941
  293      1      23.46284003       25.70866358       27.18782834
  294      1      20.70209145        1.02567690       19.44276239
  295      1       0.11299541       14.07235689       23.02278734
  296      1      17.87982717       17.57463451       21.24603609
  297      1      14.29388273       15.03754975        0.24479735
  298      1       0.54690098        8.43314245       23.32945354
  299      1       4.79005120       27.07897837        0.58786693
  300      1      19.39644704       25.39999976        8.35570576
  301      1      14.65024435       14.68047499        2.49639304
  302      1       7.23855092       11.03173288       25.66279111
  303      1      17.24852267        4.37869514        1.57437075
  304      1      19.96905495        7.16572984       22.63035385
  305      1      16.83068048       23.90620592       15.58816885
  306      1       4.08163692        9.90532516        2.04828020
  307      1       1.53932372       20.30352881        9.48486598
  308      1       9.47866029        0.83848059        7.05531570
  309      1      24.91901307        1.08203534        5.80798327
  310      1      20.16820629       16.97184610       18.20866200
  311      1       0.96306808        2.99285000       27.62439431
  312      1       3.10407187       10.96212172       22.78948490
  313      1      23.81635912       22.17971889       22.99300987
  314      1       1.38423330        1.64695592       18.75409325
  315      1      14.90350794       27.51659411       17.56244825
  316      1      13.25391581       21.45424687        5.42795493
  317      1      25.63457629       18.97199978       11.96008723
  318      1      24.62737610       18.45628397        9.79756757
  319      1       4.25375137       24.75167416       12.36001358
  320      1       7.78092904       24.36194170       13.54317153
  321      1      12.54754287       17.62869071       24.86605414
  322      1       2.03512281        9.34054469        5.53609503
  323      1      20.30537354       13.01460775       12.27791935
  324      1       9.93671381        0.75241130       19.92779195
  325      1      23.94353242       22.63847700        8.01373542
  326      1       8.36211778       26.49534199       12.80592698
  327      1      23.44914250        5.99781390       11.52176312
  328      1      14.81353480        7.74769214        5.25126966
  329      1      21.66485544       22.35514121        7.59534135
  330      1      23.75561483       16.29088302       13.94427187
  331      1       3.78393466        5.18622557       12.54790889
  332      1      22.59762052       18.78221874       21.81916560
  333      1       0.67885428        3.78332946       21.90357161
  334      1      11.00931953        2.26354403       14.24905006
  335      1      26.22375347       21.19420296       11.82189221
  336      1      19.63932158       20.47948025       11.19025707
  337      1      24.85279853        5.17960452       22.61252078
  338      1      19.89115192        4.36411123       11.01765262
  339      1      19.07071325       19.70964600        7.10139770
  340      1       8.79135252       13.06235737       13.39659414
  341      1      11.44562135       11.05505116        1.93865653
  342      1      18.73266434       19.17857472       27.04669206
  343      1      26.90233055       15.86951942       15.42187002
  344      1       3.56261250       25.84358698       23.95859651
  345      1       9.08799194       21.73354135       19.89496698
  346      1      24.08925997       10.92307819        0.86251219
  347      1      13.48366754        5.13286072       25.08594541
  348      1      25.88509025        8.62254388       13.47835656
  349      1      26.23890161        9.58240392        6.93363107
  350      1      18.22515646        1.13036646        7.26325324
  351      1      26.84241754       22.91678543        3.32759486
  352      1       8.10593768        0.29989710       26.40052381
  353      1      12.94595604        2.32088607        8.24924881
  354      1      19.75622302        8.98143580       25.47649650
  355      1      16.11878293       14.90600840       24.34447710
  356      1      19.74208008       12.45655784       10.02672753
  357      1      18.20614187       13.28083451       19.19895515
  358      1      22.64217238       18.80834312       25.63051593
  359      1      25.84378299       25.28803440        9.97259041
  360      1      15.12278365        4.39823055        0.67220980
  361      1      12.37881551        3.04510272       25.69760602
  362      1      10.17512834       20.42193308        2.73704185
  363      1      26.12825140       24.74145470       12.12731377
  364      1      16.18479678        1.16095147        2.08221229
  365      1      19.00645949        0.78883657       17.80991525
  366      1       6.61838013        6.74678087       24.02916393
  367      1       6.62936945       15.61791010       21.74410354
  368      1       8.39071578       25.88532573       27.56010719
  369      1      15.55829769       20.10593620       18.02486040
  370      1      10.85716194       27.50962193       23.69751300
  371      1      26.94966011        3.73252924        1.47053769
  372      1      23.17201258        5.74177155       17.99443843
  373      1      14.34439944       12.64428027        3.51324959
  374      1      16.81650054       15.46986845        2.99690764
  375      1       6.21394427       14.44546303       19.73906439
  376      1      26.13074027       20.48464734        6.43883421
  377      1       9.04604201        8.35769010       19.79237871
  378      1       3.95319304        7.34024327       13.57660291
  379      1      27.04640965       12.80283216        9.50580837
  380      1      24.75575260       19.94977724       18.42523047
  381      1      12.73873796       22.29998850        9.45795221
  382      1      12.95917143       23.62542818       21.19846055
  383      1      23.92276828       10.49658643        9.80287541
  384      1      18.12473726       11.37371572       20.78801022
  385      1      14.27537203       20.63144808       16.10189872
  386      1       5.83906226       19.69774509        6.20611703
  387      1      27.06885689       19.76203792        0.82989614
  388      1       4.18668502       17.72612723       19.88722704
  389      1       1.06781241       10.92695177       17.33973914
  390      1      11.13375563       22.30063442        1.73297646
  391      1       1.60988745       17.61852086       23.51523855
  392      1       3.75006123       27.25704068        7.13825611
  393      1      26.44674874       21.52855688       15.36120603
  394      1       7.38186970        0.47589352       14.21221231
  395      1       4.54763997       27.17873860        3.04291275
  396      1       5.50107007        3.51209611       13.07443196
  397      1       5.62856599       15.32961385        7.30912003
  398      1       6.31354365        0.09037840       20.90332347
  399      1      27.09912882       17.87257153       16.59018967
  400      1       9.02822857       18.40161564       10.90172249
  401      1       7.89265391        1.29754659       10.20288539
  402      1       1.79537008        4.16200426       13.18864952
  403      1       5.68027863        3.31614263        4.06704738
  404      1       7.41476444        8.25568440       13.02146573
  405      1       1.04824709        7.46532611        8.67874621
  406      1       2.71540946        9.65988227       16.10020104
  407      1      25.27732484        2.22454878       10.43645982
  408      1      19.31412909       26.73278743       10.35128325
  409      1      18.40188939        2.69270674       10.47214173
  410      1       7.57260314        5.39584009       17.88111665
  411      1      18.33515290       17.21085361       25.81767717
  412      1      11.86896131       10.87657096       18.35228214
  413      1       6.16647491       25.18856499        0.22566011
  414      1      14.49427365       21.29709549       23.81997551
  415      1       3.08968062       15.62457869       12.24640272
  416      1      12.21806046       14.23033387       27.12259082
  417      1      21.62642018        1.52142417       10.68930686
  418      1      22.92204209        0.01274905       12.94908876
  419      1      10.70213541       26.44654936       12.64671426
  420      1       6.60312485       10.52207440       21.77299612
  421      1       0.60901841       12.42478375        4.12125569
  422      1       7.73948045        9.75942721        3.81010214
  423      1      19.91863563       23.24981948        8.94355053
  424      1      20.71471518        8.45773083       10.68283003
  425      1      22.41166598       24.12833126        0.98085607
  426      1      17.26152289       20.75960690       25.99519533
  427      1      12.76615430       18.46156239       11.19078684
  428      1       3.36777794       25.05108476       14.74658000
  429      1       5.83150366       12.97227603        4.03734452
  430      1       7.39783213       12.99008580       26.96477911
  431      1      24.49135246       22.82328819       14.82779392
  432      1      22.71947047       22.92333369       11.29940026
  433      1       3.55634584        3.32574596       24.40952949
  434      1       0.60783729       22.79509406       16.42676971
  435      1      21.11606712       25.78345696        6.72122761
  436      1       8.43904903       24.94071559        9.37982321
  437      1      16.00072202       23.79445492        8.81433383
  438      1      12.98040256       25.38919760        1.09864787
  439      1      20.73316667       13.12572781       16.68698390
  440      1       3.83364786        7.92268916       17.14614204
  441      1      17.25709631       25.18399843        7.41964254
  442      1      17.27971971       15.77747060        8.71580601
  443      1      10.11097526        5.07879963        0.85298034
  444      1      15.33102330       14.92644025       11.95047053
  445      1      11.02176485        9.08218224       12.56348074
  446      1       4.37534848       22.30108584        3.82329552
  447      1       4.93389511        7.02967508        6.03454098
  448      1      24.89934404       19.00164912       24.80741411
  449      1       6.46382663       27.35879646        4.38943664
  450      1       9.44119890       27.45979950       17.68365905
  451      1      27.56763626       26.70211507        4.06437270
  452      1      19.61909234        9.31878677        0.07774247
  453      1       1.95738597       22.87556059        0.55954301
  454      1       5.93565016       10.82119826       19.50341750
  455      1       0.58211716       21.62505532        2.02169663
  456      1      17.32602641       11.96814187       17.35158612
  457      1      11.19873765       24.31758510       13.68657773
  458      1       4.62478759       15.21478673        0.70049477
  459      1      22.04013638        3.99134761       12.18045675
  460      1      20.14473704        5.58939162       15.38880889
  461      1      19.80026529       12.86960303        1.86743107
  462      1       4.38717519       11.43892850       15.74288412
  463      1       5.27912849       27.53480475       24.48593998
  464      1      13.22463617       15.11345018       13.16944111
  465      1      23.14716627       22.77642030       25.12618477
  466      1      17.10245989        9.28808182       11.96692990
  467      1      24.61741262       20.19323368        4.67447712
  468      1      21.86439156        2.64758651       22.68921530
  469      1       7.77551493       16.40608626        7.51248196
  470      1       5.33886026        6.85675872        3.71662288
  471      1      25.62312478       11.66354278       25.06481861
  472      1      22.87901906        1.64233730        4.85223932
  473      1      22.50508869       11.99702890       15.41839128
  474      1      27.61838048       21.93324568       22.97530729
  475      1      11.43981015       21.25160925       25.90692017
  476      1      15.73210351        2.27405592       20.25317192
  477      1       7.74106047       11.42344395       18.14093596
  478      1      22.79277930       12.30532194       27.22152455
  479      1      11.84331987        1.29862548        4.52018716
  480      1      12.21384403        4.62088753        8.35665988
  481      1      22.35221003       19.73212109        5.13097926
  482      1      14.57947470       23.02402385       15.48294072
  483      1       6.70856042       14.38815484       23.67118323
  484      1      17.89074729       19.15546530        1.62334816
  485      1      18.68992776       14.96724742        1.72520866
  486      1      24.65995859       24.99754838        6.02701908
  487      1      19.44613009       22.24935166        2.83590811
  488      1      16.12829588        4.84819046       11.64839468
  489      1       9.29825743       17.12880589       16.82786226
  490      1      12.20301136       15.80670449       15.24596660
  491      1      11.88255979       20.41611432       16.50710555
  492      1      27.22416215       15.75466910       13.01272252
  493      1       3.12152185       22.94267914       15.68509380
  494      1      19.10785324       26.12053130        2.09863843
  495      1      17.89948428       22.75420282       18.65111561
  496      1       0.05543818       16.92736465        8.45971874
  497      1      23.51071786       25.12078524       24.93668374
  498      1      20.18519046       27.12045726       24.64449430
  499      1      24.64989093       15.47618812       15.89753449
  500      1      18.82683026       13.34939663        6.31272244
  501      1       6.38662272       21.99471396        2.40355694
  502      1      18.17081912       14.04455407       23.45303112
  503      1       1.61928412       19.39785518       13.64493641
  504      1      22.37709849        0.37736961       15.26682505
  505      1      17.90035472        5.40418945       14.73100943
  506      1      16.05292320       10.06338352       18.00578397
  507      1      22.04731978        6.74979233        9.73777483
  508      1      12.89982148        9.38964954        2.69894334
  509      1      13.81487350       27.60122735       13.55145439
  510      1       3.02382077       15.58601751        4.17582035
  511      1       2.50361022       16.41900249       16.14667463
  512      1       8.67010186        8.08367246       23.83575368
  513      1       7.91571749       16.80551910       26.28746618
  514      1      17.87028040       26.60359105       22.13310348
  515      1      12.70773087        4.77927516        6.08344831
  516      1      13.20843270       23.73756563        4.65922972
  517      1       7.10948103       20.11521798       23.11311951
  518      1       1.36587812       10.17273965       12.54270745
  519      1       9.99012706        5.53848064       18.06009510
  520      1      18.63135182       25.43361636       25.39259852
  521      1      23.18758043        1.99046188        9.05062630
  522      1       3.94793903        5.51642825       10.17532140
  523      1       3.11234940       15.89568462       22.71113949
  524      1       4.10624130       12.22923877       13.52283892
  525      1      16.35085627       17.27369359       24.60757656
  526      1       2.52648832       26.56599240        0.08969083
  527      1      12.88112876       25.95090623       20.56938944
  528      1      20.83817232       18.39003150       14.37504820
  529      1       3.92268337       21.81716117       27.17956583
  530      1       4.64770493        3.31472043        6.17685465
  531      1      14.81495427        8.24008604       12.21226321
  532      1       7.31265748        7.76671015       18.15144196
  533      1       6.48533433        3.33332829        7.57330747
  534      1       4.87404954        8.18250175       24.39479950
  535      1      14.27165039        3.47638235       16.81187010
  536      1       3.24218540        3.68444365        0.51101301
  537      1      23.75317469        6.78002167        3.09054201
  538      1      18.96457944       21.20021591       17.07567131
  539      1      20.48918507       23.09047332       14.60187910
  540      1      23.72260795        3.73678525       19.34863727
  541      1       1.24854704       23.82268627       20.12174222
  542      1      12.87608481       22.99514073       23.53474062
  543      1      13.41225704       23.62476177       13.39852778
  544      1       2.67202883       25.65760460       19.99065178
  545      1       3.01688504        1.57221856        6.11923647
  546      1      24.68970931       11.70462215       22.86159574
  547      1       7.83611239       18.59587323       19.99039112
  548      1      10.91952119       19.28223411        9.92952610
  549      1       4.69754787       22.18279168       24.87757246
  550      1       3.38891926       12.60874417        6.72486556
  551      1      23.85423093        2.38777671       12.65550046
  552      1      17.61680896        6.38627972        2.54704117
  553      1      18.54661306        3.14315655       17.72889387
  554      1      17.56413927        1.82807314       25.19245449
  555      1       6.77921028        3.24561344       22.25124067
  556      1      18.99757017        1.65177188       27.29753805
  557      1      17.77321286        7.95809944        0.82258184
  558      1      23.16578117       23.27214371       19.27951633
  559      1      22.83041875       25.33487706        2.84550076
  560      1       0.11653412        7.40845676       20.12847205
  561      1       7.72814308        4.75286430        1.44505185
  562      1       0.67393811       23.72616829       12.62510356
  563      1      20.27725971       16.70528289        2.12504421
  564      1       7.56230011       11.52008494       12.05048807
  565      1      26.83868385       24.26944902        6.73841332
  566      1      26.71377297       13.07869531       19.75846351
  567      1       0.83831359        2.12031027        7.13271756
  568      1      17.37235442        3.28592724        7.19200911
  569      1      27.31390446       24.96036881       16.03295905
  570      1      20.91839438       22.03973139       25.59845710
  571      1      13.40453912       15.21622701        5.96233031
  572      1      17.07551948       20.48944025       13.58836875
  573      1      25.52240184        0.29096150       17.43104522
  574      1       2.63040238       26.97942927       22.09604388
  575      1       8.92475524       18.76528093       25.58849946
  576      1       6.26858377       24.41730520        2.38355061
  577      1      13.12989182        7.47556885       17.73730913
  578      1      14.59051161       19.62919072       21.86517098
  579      1      15.71393496        8.53141793       21.97765969
  580      1      27.14640645       21.57711197        9.69454632
  581      1      21.25881909       18.76091529       23.73789378
  582      1      23.29354599       23.80045970        4.52575524
  583      1       6.77611702       21.11424753       21.03736480
  584      1      24.43409619       15.95826871       10.11536983
  585      1      20.64403721        6.87025889       24.87372062
  586      1      14.64560121        2.02792095        9.76043650
  587      1      25.86571802        5.79831865       11.16318395
  588      1      13.56724470        9.80481200       15.15057814
  589      1      17.20996828        4.75684158       22.98070290
  590      1      21.40639794       20.15130806        7.25501561
  591      1      18.68654679       16.83876391       12.07324651
  592      1       4.90190750       14.38863157       12.98574026
  593      1      11.03402562       14.75116635        3.07653641
  594      1      20.91371759       20.32192890        3.23346840
  595      1      17.84534699       27.65428072        0.73110376
  596      1      25.38090202       26.81943796        4.65603592
  597      1       0.20447742        4.96474658       17.51414536
  598      1       7.40532627        4.37736342       14.09564700
  599      1       8.90841766        4.43072223       25.08483093
  600      1       7.51068901       14.19345407        3.00270607
  601      1      11.75209992       15.91255700        7.74838687
  602      1      12.05133299        1.89157870       23.65828736
  603      1      17.56770643        4.21301431       25.21670882
  604      1      13.72642837        6.29235535        9.20343105
  605      1       3.54853559       12.21078835       26.52281963
  606      1      17.59639643        1.65116212       12.38204734
  607      1      27.22074962       17.12371213       18.88334221
  608      1      27.65147659       26.66109551       25.06317551
  609      1      16.25232246        6.84251873       15.76786868
  610      1      25.86656006       26.42372378       21.70730144
  611      1       4.48525929       12.68156135       19.41816524
  612      1      19.50163880        9.17728579       16.41792259
  613      1      25.42648640       23.29882999       20.12910931
  614      1      11.53518312       26.54669906        4.79755520
  615      1      18.01090192       10.45537945        9.97825344
  616      1       2.07680519       19.45086393       25.12392471
  617      1      13.66850967       26.15952082       10.16864313
  618      1       9.03150240       20.82146772        7.34356219
  619      1       1.97852640       19.93057001        7.17878287
  620      1      10.71656570       19.80151190       22.26457789
  621      1       6.76429622       22.95926600       16.70908747
  622      1      11.96534457        9.57232644        7.21901517
  623      1       5.79358718        0.92096106       26.67992632
  624      1      16.85718010       15.94111439       13.36588000
  625      1      15.21733487       11.41780836        7.16120814
  626      1      22.64373248        3.90617203        7.81271207
  627      1       5.83459355        4.25988037        9.59824506
  628      1      15.97765431       16.67231634       20.22630992
  629      1      10.64491313       22.01413107       23.45966116
  630      1      16.16747829       17.69354997        2.23140609
  631      1      20.61858725       13.58104649       19.10522389
  632      1      24.37599272        6.39268784        0.75765278
  633      1       0.88726236       14.67201435       16.67409495
  634      1       1.27944888        2.84034861       24.02977464
  635      1      18.27171330       22.11216017       14.98673655
  636      1      16.91728127       26.45605474       26.65387204
  637      1       5.67130541       17.62446365       26.02297692
  638      1       9.07323116        8.82652134        0.13957459
  639      1      23.62115688       22.09375956        1.16473307
  640      1      27.50056975        3.92434878       25.58635015
  641      1      11.01870789        1.21870126        8.90523158
  642      1       9.14358668       15.10051550        4.44110305
  643      1       4.77397647       20.06592038       20.16756321
  644      1       1.35581766        2.69009931       11.16287400
  645      1      14.50056438       27.09756442       21.86908796
  646      1      19.32926533       13.75544619       25.54338166
  647      1      21.33564212       15.77257603       27.46261888
  648      1      12.33234304       15.21764699       24.87759279
  649      1      21.53776494       18.27342028       16.74753768
  650      1      20.11528763        6.54686478       19.08840864
  651      1      26.90914756        9.66106422       11.70552630
  652      1       5.23432430       14.02058009        9.27554410
  653      1      25.30401754       12.03573714       18.19978070
  654      1       8.07606811       20.88420442        3.62246723
  655      1       2.02124480       12.78319836        2.27839663
  656      1      11.87396972       13.05609969        5.94758791
  657      1       6.64436573       16.03919694        1.82105442
  658      1      26.22259789       20.36957606       26.28431877
  659      1       7.67644844       23.23518135       18.77191593
  660      1      16.25628861        7.56478040       26.69504010
  661      1      19.39833209       18.52898886        3.32117142
  662      1       0.93845058       16.23535692        0.74801258
  663      1       1.16156383       25.35490526       14.20509291
  664      1      17.13259251        9.81178173        2.42905675
  665      1      14.98944796       14.55720208       17.59542737
  666      1      12.00036056       12.63905026        3.59556547
  667      1      13.05607511       19.83577540       13.01289955
  668      1      21.15333086        9.08825187       22.10586800
  669      1      20.73971373        4.98235144        8.85372446
  670      1      24.07770900        7.55163031       19.21125463
  671      1       8.49801611       11.71701204        6.83703741
  672      1       7.56810879       13.61779458       15.28819255
  673      1      16.40081363       27.31388508        7.46993821
  674      1       1.55361146       12.82425959       10.24738190
  675      1      25.68478370       11.54984186       10.93095673
  676      1       8.22898745        4.81352697        7.06097915
  677      1      20.41767373        4.74544248       17.60191169
  678      1      10.44793942       18.60251436        0.98808447
  679      1       2.00173511       22.74079494       22.05793946
  680      1       3.38227560        2.46779180       19.75689225
  681      1      12.64092009        8.67340721        5.06328855
  682      1      19.93851424        1.96850088       21.61589183
  683      1      15.33934424       23.84944233        3.75398381
  684      1      23.30280043        9.74850843       15.91739182
  685      1       2.29588665        8.81888744        3.20300109
  686      1      22.44513455       10.16677956        2.58523179
  687      1       4.21605378       12.27558836       24.31196741
  688      1      20.73455314       26.30951184       12.36434201
  689      1       5.28180814        8.59180080       18.87374337
  690      1      16.91898468       15.41246909       18.51658835
  691      1      20.94915828       10.24125379        7.22601374
  692      1      15.62165827        5.29958319       26.22340986
  693      1      18.97342668       17.80129090        5.72774339
  694      1       1.91674116       25.49941180       25.68669903
  695      1      21.35787282        6.53063167        2.16747310
  696      1      23.53485315        8.15951767       27.13181932
  697      1      19.03339673        0.68425936        5.13764380
  698      1      20.97287961       11.78657571        3.65883908
  699      1      23.50087228        8.31445422       21.64422494
  700      1      21.16539585       27.60129878        5.14422620
  701      1      25.04526017        8.74576132        8.74477547
  702      1      10.52372597       23.06969598       21.14314514
  703      1      10.51921125        6.74978399       12.07348671
  704      1      22.31289872       21.66294813       15.02293788
  705      1      19.28285212       15.85179401       22.05159188
  706      1       0.23282074        3.11555364        3.58942826
  707      1      10.81793716       26.79076124       21.41129419
  708      1      15.09953441       19.36525821       14.35380409
  709      1      16.42784765       27.60688703       20.60090363
  710      1      23.32482657        4.45895178       25.61563963
  711      1      14.53156593       17.40438358        0.42899530
  712      1       8.70948708        0.57102626       24.12686148
  713      1       5.45410096       17.69415538       14.60199169
  714      1       2.43918755        6.49165118       19.92001968
  715      1      16.31060210       20.10072407        9.82122263
  716      1      10.19373454       19.02726793        6.26399162
  717      1       1.34025076       27.53012113       13.39888475
  718      1      11.33060376       10.69788835       25.48068847
  719      1      25.43184119       19.42983401       16.06853753
  720      1       2.07311227       20.00588718       18.06698563
  721      1      19.14988697        2.62004302        3.80387131
  722      1       3.71912964       10.07483602       27.36683785
  723      1      24.03384963        4.81348299        4.30605668
  724      1      12.28806026       11.82782520       27.41668583
  725      1      10.09532012       13.35034487       20.26913299
  726      1      23.32702205        8.83984463        4.30128699
  727      1      13.70809642        1.94570887        5.96663598
  728      1      23.41934098        7.29356066        7.92637480
  729      1       0.13306620       16.04466120       24.37136440
  730      1      26.72040779        2.69432116        5.63525526
  731      1       0.43370813       21.21538951       25.14094556
  732      1      26.29765995        4.40398552       19.30940866
  733      1       7.21311013       17.82301453       17.84192051
  734      1       1.46932843       11.55266816        6.01368888
  735      1      19.23021582        2.14967927       14.21372834
  736      1       7.73932894        1.88355665       20.40557795
  737      1      20.93034105       14.33481977        6.46164703
  738      1      12.82361533       11.68206488        7.58750039
  739      1      13.80289988       18.72381151        7.78512099
  740      1      23.17801886       14.50034808        2.86420092
  741      1      19.15072230       11.49359726       15.97550069
  742      1       8.24604058       13.59716552       18.83403212
  743      1      22.93760601        6.78509903       25.25667536
  744      1       7.07872060       21.78282153       24.74334874
  745      1       3.34611554       21.33285203       10.63637734
  746      1       0.98564910        0.49344916       23.50845001
  747      1       6.05554255        8.73060518        2.51858010
  748      1       5.72309532       17.28220474       10.79372445
  749      1      10.00012948       26.22744452        6.53573868
  750      1      18.48262300       19.42029628        9.39765539
  751      1       9.22558446        1.73888262        0.07723654
  752      1      22.67186146        2.63474477       15.76240297
  753      1       3.78988153       20.27155479       23.86490153
  754      1      15.74165763        3.37677805        5.43044812
  755      1       7.12580166       18.87001424        4.40510955
  756      1      23.14068887       17.05417447       27.11371831
  757      1       3.78464888       20.20932056       12.69185992
  758      1      25.61743374        9.62622224       26.46727819
  759      1       8.80406033        8.94898728        9.39748614
  760      1       0.10618680       17.97840421       12.27625568
  761      1       3.15402051       17.18438957       13.98134431
  762      1      11.03604936       19.69551216       14.41604193
  763      1       7.43313973        1.66666023        3.65590507
  764      1       2.59501021       15.02517931        1.97248473
  765      1       3.73570022       17.74571480        4.13432197
  766      1      19.16886577       18.71216114       19.58036603
  767      1      14.61127406       18.12485143       25.86932956
  768      1      18.61067027       23.02693086       20.86645226
  769      1      17.08793407       16.50973753        6.51946773
  770      1      20.71821943        8.83807439       18.43996292
  771      1      24.41047424       13.15637960       16.27057281
  772      1       8.68070699       23.39943063       24.19395712
  773      1      14.03756349        1.94491574       18.62664182
  774      1      20.13851082        2.68522525        1.55291104
  775      1      10.46902101        7.19945715        9.74323944
  776      1      20.61951399        5.54682282       21.14357809
  777      1      15.61544497        2.89587672       12.90010612
  778      1      13.27643971       11.83039560       11.27201837
  779      1      19.43660873        9.08710960        8.74930188
  780      1       7.42757701       26.98453898       16.18861432
  781      1       4.79538953        7.68054583       10.01741446
  782      1      24.55243932       26.81891685        2.51607282
  783      1       3.63597557        5.98897872        0.49293054
  784      1       3.72055717        5.13850924       22.99179557
  785      1      13.70604865       23.64362549       17.60304970
  786      1       7.19362297        6.91188245        6.79517776
  787      1       9.66999391       13.62161765        6.21503050
  788      1       4.96053538        1.95670417       23.27365209
  789      1      27.26208178        2.15005037       20.28643445
  790      1      22.08475580       15.38257431       10.03491943
  791      1      21.50519353       13.49298138        8.66223809
  792      1       6.49329006       11.98282423       23.66126885
  793      1      23.95388981       12.20351149        6.04969835
  794      1       6.14034780       26.28315161       19.19130082
  795      1      27.48407120       25.04968868        2.43394014
  796      1      25.01805698       15.17671850       12.29172780
  797      1      25.73469823       13.65615998       21.93652135
  798      1      15.14526056       25.41754481        2.12435404
  799      1       4.51398955       14.23863723        5.43205624
  800      1      10.12056551        6.22870524       24.05055425
  801      1      10.69249240        7.51075096        4.37272307
  802      1      26.45975740        6.49686495       16.41808754
  803      1      20.09641315       20.86577295       23.67130362
  804      1       9.51506970       22.95814659       12.87279293
  805      1      21.18098097       23.62096691        5.72807974
  806      1       1.81992703        9.22078023       26.49234942
  807      1      10.76057695        3.43135080       17.69329346
  808      1      21.08661614        3.70177802       14.31551371
  809      1      21.02385288       20.09174481       26.93783918
  810      1      27.56267775        6.26550405        4.95452280
  811      1       8.51443133       16.90565792       21.62951015
  812      1      15.87765111        5.97109906        8.21236106
  813      1      16.53469982       11.83196937       26.79432392
  814      1       8.34541409       14.66976915       25.30584596
  815      1       7.60775120       24.71562545       22.55850900
  816      1      26.41672359        7.87034817       24.84475566
  817      1      14.54109968       10.97079135        0.07221960
  818      1      11.67015992        3.05406747       12.14830575
  819      1      10.87194020       12.38245626       14.46358631
  820      1       1.71714337       18.19249576       19.56736882
  821      1      13.81141575       21.06974767        7.66866617
  822      1       0.75726758       11.32569738       19.86140700
  823      1       0.74104078        3.61642180        9.01038281
  824      1      10.27673689       14.69883022        0.88169154
  825      1      27.34931770       23.86399826        8.96348136
  826      1       6.16811187        5.22733683       15.93886639
  827      1       0.87232137        0.89925066        2.97598067
  828      1       5.89838963        5.63336719       22.09490544
  829      1       8.82591247        9.61667258       11.75142953
  830      1      26.63607661       10.90944187        3.46136138
  831      1      19.59340108       11.25142650        5.49740894
  832      1       2.20002481        5.39052492        8.52707931
  833      1      15.48546878        0.06032983       15.24739083
  834      1       4.14445180        0.94815436       21.36741658
  835      1      25.86639878       12.25945252        1.69897523
  836      1       8.37621366       24.62739493        5.70132088
  837      1       2.66291498        4.44713801       21.01060547
  838      1       8.04694792       24.70277472       15.77167563
  839      1      22.04184609       26.71754081       19.77071887
  840      1      22.27697770       23.19893791       21.45477109
  841      1      10.34005414       15.32151676       21.63527620
  842      1       5.23414014       18.81293617        0.42919741
  843      1      12.29131488       10.17720377       20.47449405
  844      1      24.97449254       15.66710224       26.60523304
  845      1      13.28252668       24.80053511       24.89797329
  846      1       2.20713730        0.50643814       11.20212152
  847      1      24.34262688       15.51181294       22.74733553
  848      1       5.88903958       23.20468019       12.76904236
  849      1      19.15105850        7.95533495       12.47435851
  850      1      17.50926852       21.45988339        1.78369764
  851      1      15.66115934        2.44731670       15.21485325
  852      1      16.72759739       10.68989983       24.65645069
  853      1      15.16245809       13.33985530        5.65506521
  854      1      11.69051975        2.37798675       19.61049163
  855      1      11.49969715       22.69279772       17.31821730
  856      1       1.90803242        8.46658643       14.13477792
  857      1      23.22428429        0.78024025       22.85589553
  858      1       6.88771936       21.03400187       15.37420196
  859      1       9.02887196        4.33279439        4.99030501
  860      1      10.47721995       24.43280918       15.94420840
  861      1       3.33617086        5.23369080        6.35839087
  862      1      14.27211901        1.48917716       23.20393822
  863      1      20.22344642       10.23817512       20.29603460
  864      1      18.54789719       12.39662222       13.79004708
  865      1      27.25214674       26.33785902       17.89862245
  866      1       6.79984629        8.17451035        0.33376136
  867      1      11.05919304        5.27364933        4.50046918
  868      1      22.76752202        0.30187848       27.21152940
  869      1      23.63239158       17.10215427       17.26446450
  870      1      20.98483152        4.69735480        0.60381557
  871      1       5.25298890        8.60070803       12.10895947
  872      1      25.02527800       10.05919645       21.29907366
  873      1      13.91794962       16.42946341       16.69089935
  874      1       3.41096257       17.02383276       10.20133095
  875      1       4.39823858       15.19902257       16.72536446
  876      1      21.84351400       13.80581116        0.98935325
  877      1       2.96553493        0.84306316       14.80823706
  878      1       3.13332609        6.59014421        2.80917788
  879      1      26.10119310       27.61935176        9.30150762
  880      1       6.78765369       11.30884365       15.97157745
  881      1      15.10175956       18.46627375        4.21256485
  882      1      22.96519911        9.28203205       18.17593657
  883      1      13.79698596        5.83672313        1.95932364
  884      1       5.24232550       26.29181438       10.81884379
  885      1       2.73515603        7.04780404       24.07456332
  886      1       0.36539407       27.63110164        7.89925474
  887      1       1.92476494       24.52228657        9.17352915
  888      1      18.81471255       17.18126578        9.75889787
  889      1      22.45859782       16.68064651        3.02313863
  890      1       1.50996188       15.51022563       26.29310095
  891      1      12.28118598       16.61459659       21.01349640
  892      1      13.62735432       21.86030066       11.81216995
  893      1      25.91513357       25.75649377        0.60165225
  894      1      12.18273832       27.19560333       27.40379581
  895      1       2.85265702       13.81207017        8.64997164
  896      1      19.47217913       26.25421113       14.51639601
  897      1       2.96282041        8.83315951        9.06081315
  898      1      22.84152169        4.41396884       21.45420020
  899      1      25.17714783       26.56255931       13.37064865
  900      1      17.53710665        7.22949615       22.94625674
  901      1      19.23403912       22.81512165       11.10672766
  902      1      17.11225841       25.95914500       14.47848136
  903      1      26.68438499        5.98958602        0.92325913
  904      1      17.78131818       14.37422104       14.79675438
  905      1      14.25188202        8.76896566       27.04230214
  906      1      17.14098178       26.92796633       18.36271458
  907      1      23.95956367       27.59830438       20.78863060
  908      1       0.62611273        2.79867973       16.74726968
  909      1      11.33646654       26.53131260       16.61162640
  910      1       9.61375078       26.09971588        2.09902161
  911      1      26.76317751        7.82630347       10.14846450
  912      1       6.02610965        2.48632433       10.92481170
  913      1      20.40446900        7.82699434       14.65790708
  914      1      22.10099793       26.46238616       23.57295841
  915      1       6.71214694       11.28839927        5.37569730
  916      1      24.61230399       22.17626164        3.32555087
  917      1      22.22579650       20.21033971        1.29525366
  918      1      26.52236920       10.08152719       17.37167815
  919      1       5.36555503        7.35207035       15.48949577
  920      1      11.32376366       12.08334620       23.55639114
  921      1       8.94445274       20.88786558       13.94035757
  922      1      13.57724860        5.23749597       22.62501148
  923      1      17.52547991        8.51463391       24.95983271
  924      1      17.29024047       24.52802466        5.14004240
  925      1      26.11691423       14.99498434        8.67098884
  926      1       5.74545543       18.78991944       12.56228613
  927      1      11.67399288        0.00699920       14.44777918
  928      1      16.44493661       12.03202511        9.09552191
  929      1      13.66498373        1.27235701       26.74211967
  930      1      17.75161135       19.29509070       17.69779135
  931      1      19.62964637        1.11147600        9.31774016
  932      1       3.51301036       13.05352887       17.26434730
  933      1      20.01488807        4.41701913        5.03898544
  934      1       2.22328480       26.88918416        9.10500387
  935      1      20.99743363       15.73029826       20.17438133
  936      1      15.43978214        7.29738640        3.10714472
  937      1      14.89304796       10.65227860        2.35481365
  938      1      22.40865554       11.95804816       12.96436582
  939      1      14.73396405       11.78165705       14.47506973
  940      1       8.15201994       22.20894200        5.59101614
  941      1      15.77278081       17.22199300       15.20345639
  942      1       5.71971786       21.97874450        5.77725788
  943      1      12.63893876        7.78578137       19.98249378
  944      1      12.23960990        2.14474516        2.35602524
  945      1      26.09404403        4.24307001        9.45664258
  946      1      15.45210507        0.51923725       25.31313378
  947      1      12.49531164        8.30834728        9.19471834
  948      1      15.56054508       22.33014279       18.74229106
  949      1      21.40030943        3.22970244       24.95660757
  950      1      25.27858246       20.71103726        8.55675740
  951      1      10.41683577       21.55967184        9.25853447
  952      1       8.69196500        9.48275699       21.83445290
  953      1      18.00345913        7.49091477        7.46987519
  954      1       9.97218423        2.74686332       10.33379964
  955      1      23.68115385        8.02923214       12.76183417
  956      1      21.04511272       15.19510307       25.18498498
  957      1      13.47631302       21.71569380       27.01357794
  958      1      13.64086462       24.44277509        8.59687441
  959      1      15.18187588       15.98973161        9.85307657
  960      1       9.63270617       13.49920356        9.83469350
  961      1      21.04847765       17.11836970        8.90727516
  962      1      26.91956302        2.37618786       12.23207461
  963      1       6.09526925       27.11816352        6.82517350
  964      1       8.65948049       14.67491452       11.68890253
  965      1       8.03475738       20.86154573       26.64304275
  966      1       7.39218101        8.90844501       15.45650644
  967      1      18.35029301       11.28431051        0.76401535
  968      1       4.52788001        7.48352151       20.75460095
  969      1      11.76987660       13.19029509       18.56410170
  970      1      26.38975817       21.24752851       19.54681185
  971      1       0.33466838        8.05690796        6.48608610
  972      1      18.33594258       11.68284761       23.12594848
  973      1       4.54373449       22.93211996       17.58939246
  974      1      11.24715585       10.04103935       14.68127418
  975      1      25.12445670        1.49558535       24.05373182
  976      1      20.86168595       23.92013750       12.41488007
  977      1      25.91436709       12.29868356       14.72689762
  978      1      17.17832477       27.24959668       11.17361121
  979      1       0.95447865        0.68191610        0.59154333
  980      1      14.18111859       11.59480159       20.74871490
  981      1      23.22201651       25.90237059        7.69427692
  982      1      15.17937172        3.46499713       22.27783351
  983      1      24.22643393       13.47846797       25.84265137
  984      1      12.81923271       17.44830091       18.70896622
  985      1      25.82667410        4.84661366        5.76962257
  986      1      14.86626174        5.77869938       17.38433378
  987      1      11.58076418       19.88177902        4.58909700
  988      1       3.56468036        3.26247722        2.90442452
  989      1       8.63173183       17.34696361        5.46816674
  990      1      25.78889181       13.59693239        6.52604203
  991      1       4.02341609       23.66014288       23.12676520
  992      1      17.68366775       16.96678576       16.80490528
  993      1      13.31045252       25.52156289        6.27276228
  994      1      22.34265309       13.33450069        4.75540972
  995      1      24.36601653       18.60849390       13.92931207
  996      1      19.25242949       25.26717590       20.88908967
  997      1      12.25688533        5.33096800       12.54408569
  998      1      14.31598614        2.18005168        1.08363377
  999      1      18.03870085        9.66228205        4.72052128
