         255
Lattice=" 16.138199 .000000 .000000 .000000 16.138199 .000000 .000000 .000000 16.138199 " properties=species:S:1:pos:R:3:force:R:3:id:I:1 energy:-871.048277072
 1   3.963516719 1.937681323 1.924753523    -.002688502 .001771318 .002338208    8
 1   1.940070146 3.955582494 1.918015006    .000757030 .000760848 .004955785    19
 1   1.942864092 1.945865187 3.947506883    -.000580991 -.001232455 .002878460    66
 1   3.954421805 3.957705153 3.945299476    .001766325 .000233555 .002464154    85
 1   3.974549905 16.049757281 16.057717008    -.001204923 .001644638 .001608539    5
 1   7.999908635 1.936524931 1.941445705    -.001427195 .000199688 -.000320491    12
 1   5.979650578 3.958660273 1.928135112    -.000293578 -.000936744 .002144774    23
 1   10.013727661 3.962017997 1.946177687    .001118492 -.001476077 .000993664    27
 1   5.972516276 1.948467922 3.953767905    .000909546 -.001481164 .000826739    70
 1   10.011741598 1.947326335 3.961500759    .001015855 -.002628885 -.000242765    74
 1   7.990054053 3.962585283 3.956243519    .000993665 -.001554887 .001243963    89
 1   16.058802444 1.936846193 1.928516826    -.000853628 -.000809420 .001820227    4
 1   -.069874205 3.958731655 3.947565708    -.001184637 -.000659305 .002991969    81
 1   12.027514656 1.935331523 1.944319723    -.001443060 .000161775 .001999018    16
 1   14.044444113 3.958150280 1.932184919    .001236272 .000993135 .002146135    31
 1   14.051493103 1.946086633 3.957759165    .000462592 -.001844900 .000827625    78
 1   12.034900458 3.962000656 3.959835094    -.000262097 .000120475 -.001079131    93
 1   12.030707985 -.070133863 3.968945298    .001031095 -.001044759 -.000633777    77
 1   12.026537008 3.958777920 16.066446066    .001559280 .000815079 .001366892    29
 1   3.959985676 5.975212865 1.921929251    .001844819 .001940478 .003920661    24
 1   1.943660556 7.995134596 1.928604534    -.001091135 -.000294342 .002250753    35
 1   3.967777080 10.012259217 1.938041058    -.001854517 .000957482 .001574822    40
 1   1.943000444 5.969396518 3.945398811    -.000001338 .001924732 .002629555    82
 1   1.947551428 10.005829231 3.956817873    -.001729830 .001119685 .001196760    98
 1   3.955364947 7.983889233 3.951966055    .001263380 .002273361 .001994262    101
 1   7.995992590 5.983846544 1.937698421    .000976766 -.001891001 .001668250    28
 1   5.981720968 7.997846918 1.935881464    -.000080403 -.000123036 .000157268    39
 1   10.011684178 8.008210407 1.943096700    .000449501 .001361015 -.002107674    43
 1   8.000078814 10.016595886 1.956480011    -.000238647 -.000356116 -.004043605    44
 1   5.968452465 5.970488620 3.951779198    .002100849 .001448430 .001992703    86
 1   10.012578099 5.976605545 3.959608942    -.001461937 .000412324 -.000741628    90
 1   5.968037259 10.003504339 3.964501311    .002442396 .001078511 -.002380067    102
 1   7.986832875 7.984450535 3.964370023    .001119290 .002138904 -.002226704    105
 1   10.008474032 9.997461825 3.984599377    .000980083 .001479069 -.001241503    106
 1   10.014716350 5.981425628 16.069946604    -.000507848 -.002389698 .001090158    26
 1   16.060562848 5.979310125 1.925256291    .001700079 -.002778768 .002411043    20
 1   -.078396607 10.015267689 1.942478360    .000008421 -.001476137 -.000510462    36
 1   -.066267455 7.987691521 3.954379736    -.001754814 .001026369 .000792294    97
 1   12.030300203 5.983831493 1.941010657    -.002205947 .001580227 .000484281    32
 1   14.042328466 8.003229258 1.939816138    .000014614 -.002594001 .000959746    47
 1   12.022435646 10.018596834 1.960711297    -.002213942 .000355466 -.006988238    48
 1   14.055895514 5.974571455 3.954717381    -.002713500 -.000965024 .001183158    94
 1   12.034809033 7.987093559 3.964489926    -.000630623 .002257790 .001022469    109
 1   14.055708886 10.006215488 3.967849412    -.001572394 -.000677247 -.001249013    110
 1   14.033858072 5.991128396 16.058319899    .001747293 -.001267441 .001361582    30
 1   12.013994781 8.020493920 16.063899184    .002249492 -.002652669 -.002600343    45
 1   1.941559878 16.060613949 1.931775908    .001119925 .001187341 .002409501    3
 1   3.958660384 -.066361031 3.954321424    -.000924853 -.002569075 .001197403    69
 1   1.945865376 12.029951636 1.946512474    -.001376204 .001022773 .000906972    51
 1   3.967180836 14.046780672 1.940588836    .001787696 -.002357526 .000601752    56
 1   1.945683851 14.051591150 3.959975699    .000283703 -.000429288 -.001068779    114
 1   3.960379943 12.029536850 3.959753210    .000563905 -.001720046 -.000710754    117
 1   1.941984302 14.042465934 16.066042464    .000792220 .001532256 .001670282    50
 1   3.964901767 12.030901300 16.069922775    -.002502983 -.000491637 .001046280    53
 1   5.987691360 -.080430450 1.938715971    -.002664475 .000044001 .001330007    7
 1   10.012705419 -.091658612 1.947978551    -.002060662 -.000342818 -.002432849    11
 1   7.991051579 -.067215719 3.967076859    -.000819302 -.001395811 -.001076717    73
 1   5.991629444 12.028376204 1.943213452    .001458680 .000179016 -.002281748    55
 1   10.010350662 12.025950430 2.001719245    -.000050051 -.000182058 -.006910359    59
 1   8.003439746 14.038199969 1.959810571    -.000072573 -.002414740 -.006430452    60
 1   5.971243101 14.051380217 3.963912308    .002147208 -.000813654 .001346868    118
 1   7.981215819 12.025098776 3.984459620    .001708323 .000656572 -.001320808    121
 1   10.009023363 14.052215730 3.989715966    -.000032375 -.000643418 -.005167761    122
 1   6.004176646 14.029958910 16.063495584    -.002508238 .002210144 -.002618684    54
 1   16.067862876 -.070288535 3.957809068    -.001725215 .000399762 .000847498    65
 1   14.037505598 16.053576702 1.946070950    -.000272830 -.000415911 -.003209424    15
 1   16.057401981 14.043517807 1.944532996    .000205001 -.001557319 .002045039    52
 1   -.068057716 12.027593782 3.962304123    -.002766380 .000974506 -.000576433    113
 1   14.031604822 12.027808472 1.949067950    -.000658506 -.002022731 -.002866021    63
 1   12.019562218 14.034881833 1.963341542    -.001116522 -.001326420 -.004418027    64
 1   12.036636110 12.024442675 3.989808944    -.000650083 -.000031443 -.004950531    125
 1   14.052207636 14.046585278 3.969196354    -.000869426 .000961388 -.000738219    126
 1   3.953588486 1.951363765 5.981657616    .002783763 -.003214209 .000007245    72
 1   1.942864868 3.958006876 5.981592071    -.000285922 -.000231059 .000084689    83
 1   1.942967647 1.946118973 8.016002136    -.000594004 -.001362310 -.002861796    130
 1   3.963656927 1.938088908 10.038687507    -.002664294 .001612901 -.002309436    136
 1   1.940262284 3.955821781 10.045363591    .000759118 .000722694 -.004804224    147
 1   3.954535321 3.957919781 8.017856441    .001722560 .000151908 -.002393834    149
 1   7.986614625 1.954651543 5.981652935    .003911207 -.001385172 .000006120    76
 1   5.966212264 3.960749779 5.981500908    .002241728 -.000403486 .000053227    87
 1   10.012467019 3.962946112 5.981635122    -.000696112 .000230569 .000033488    91
 1   5.972455729 1.948762063 8.009493037    .000987009 -.001573110 -.000760386    134
 1   10.011641014 1.947669815 8.001976625    .000923587 -.002818406 .000268357    138
 1   7.999674881 1.936910979 10.021967386    -.001258188 .000104808 .000365264    140
 1   5.979662073 3.958989399 10.035313552    -.000278905 -.001097316 -.002153735    151
 1   7.989964242 3.962782447 8.006985521    .000972908 -.001612846 -.001192639    153
 1   10.013571306 3.962227672 10.017406902    .001072170 -.001437712 -.001080577    155
 1   10.009020117 -.058075302 5.981904462    .001344224 -.002940234 -.000102078    75
 1   -.067237333 1.949054759 5.981841262    -.001447156 -.001569863 -.000058245    68
 1   16.058836943 1.937079262 10.035074078    -.000745868 -.000764430 -.001948532    132
 1   -.069763056 3.958863816 8.015859498    -.001252002 -.000658583 -.002955650    145
 1   12.035619869 1.950962626 5.981869511    -.001400074 .001096378 -.000068195    80
 1   14.057943918 3.961864255 5.981781829    -.002872094 -.001645268 -.000098604    95
 1   14.051525181 1.946223513 8.005970566    .000366651 -.001720567 -.000998334    142
 1   12.027394822 1.935621538 10.019161216    -.001478966 .000140267 -.002036169    144
 1   12.034881833 3.962226988 8.003689340    -.000366907 .000035499 .001056678    157
 1   14.044471460 3.958375710 10.031387273    .001140478 .000960142 -.002290157    159
 1   14.056191955 -.065591608 5.981935742    -.001753142 -.001984575 .000012191    79
 1   12.030652738 -.070034674 7.994780275    .000984825 -.001017680 .000725263    141
 1   3.951552062 5.966203139 5.981464408    .001144644 .001381698 .000080989    88
 1   1.946285035 7.981157492 5.981572383    -.000699749 .002558934 .000051212    99
 1   3.952546102 10.002155373 5.981699824    .002556044 .000136401 -.000033642    104
 1   1.943208148 5.969399810 8.017754907    -.000058602 .001916992 -.002573606    146
 1   3.960208737 5.975287780 10.041474399    .001729662 .001883679 -.003833480    152
 1   1.947703253 10.005574718 8.006637145    -.001772289 .001183596 -.001142408    162
 1   1.943949376 7.994865593 10.034809227    -.001200885 -.000145317 -.002187761    163
 1   3.955547374 7.983775653 8.011208863    .001187827 .002295045 -.001908147    165
 1   3.967951231 10.011951689 10.025480617    -.001853936 .001040165 -.001577811    168
 1   7.985888219 5.968065311 5.981520498    .000117749 .002546974 .000021172    92
 1   5.962382474 7.978192822 5.981509148    .003456762 .003513978 .000054514    103
 1   10.009840130 7.977162088 5.981616002    -.000192477 -.000338936 .000054164    107
 1   7.978280614 9.995054380 5.981600992    .002790658 .002622547 .000083553    108
 1   5.968482296 5.970542593 8.011298994    .002108784 .001415661 -.001874944    150
 1   10.012436451 5.976563038 8.003732531    -.001435690 .000519125 .000661504    154
 1   7.995889727 5.983897415 10.025842986    .000953137 -.001885518 -.001715059    156
 1   5.968141780 10.003347402 7.998878921    .002228150 .001017719 .002257826    166
 1   5.981794383 7.997705035 10.027678584    -.000150592 -.000130419 -.000231843    167
 1   7.986725138 7.984314964 7.998855283    .001129028 .002165445 .002238902    169
 1   10.008253750 9.997167807 7.978814730    .001048386 .001658816 .001353332    170
 1   10.011443957 8.008060616 10.020390829    .000513202 .001308759 .002129584    171
 1   7.999915682 10.016317942 10.007132064    -.000177590 -.000361362 .003871387    172
 1   -.063704161 5.968821145 5.981608651    -.003482772 .002879352 .000047524    84
 1   -.060202091 10.001880830 5.981760278    -.001645709 .004087145 .000014265    100
 1   -.077396633 5.979282007 10.038158298    .001557113 -.002698311 -.002334895    148
 1   -.066060494 7.987452359 8.008917180    -.001867378 .001146160 -.000706285    161
 1   -.078143039 10.014843470 10.020987508    -.000164783 -.001288219 .000524012    164
 1   12.038546175 5.972476680 5.981659510    -.003095576 -.002292677 -.000052092    96
 1   14.061746019 7.982530625 5.981676290    -.003195645 .002941059 .000028107    111
 1   12.039202894 9.994585565 5.981880518    -.000847192 .005531703 -.000119743    112
 1   14.055948123 5.974553237 8.008673961    -.002698024 -.000895557 -.001106037    158
 1   12.030169115 5.983935469 10.022576702    -.002157674 .001440809 -.000574589    160
 1   12.034740252 7.986788763 7.998873230    -.000619703 .002528530 -.000868848    173
 1   14.055880776 10.005867813 7.995680259    -.001785161 -.000510336 .001387343    174
 1   14.042500628 8.002936387 10.023616368    -.000229518 -.002412303 -.000906595    175
 1   12.022366202 10.018086603 10.002600294    -.002347068 .000654954 .007144040    176
 1   1.945640000 -.063857538 5.981908767    -.001524250 -.002873397 -.000093602    67
 1   1.941746711 16.060875236 10.031796149    .001103461 .001041849 -.002514330    131
 1   3.958722190 -.066161314 8.009225728    -.000863137 -.002625490 -.001165610    133
 1   1.947402516 12.029033390 5.981855650    .000058383 -.000871418 .000006830    115
 1   3.956476640 14.055487991 5.981841724    -.002160206 -.003267994 -.000031053    120
 1   1.945827592 14.051636324 8.003874090    .000296009 -.000534535 .000872351    178
 1   1.945995455 12.029721379 10.017109527    -.001212561 .001032619 -.001058902    179
 1   3.960402591 12.029351899 8.003894073    .000714239 -.001660538 .000566609    181
 1   3.967405156 14.046765759 10.022962613    .001619800 -.002336360 -.000634878    184
 1   -.065273899 14.052043420 5.981984407    .001279831 -.001501726 -.000019912    116
 1   5.967248288 -.060825015 5.981694377    .002748431 -.003112939 .000053712    71
 1   5.987628363 -.080102878 10.024707418    -.002549042 -.000168214 -.001280807    135
 1   7.990836927 -.066992858 7.996308580    -.000719952 -.001510912 .001331229    137
 1   10.012363217 -.091315579 10.015291644    -.001824775 -.000555826 .002688499    139
 1   5.960799981 12.026962518 5.981731961    .000029852 -.000405342 .000022952    119
 1   10.005894325 12.021745021 5.981835050    .003116452 .003405361 .000009717    123
 1   7.978937313 14.055328450 5.981820568    .005581401 -.000938682 -.000057672    124
 1   5.971101377 14.051370146 7.999562608    .002360796 -.000795132 -.001224453    182
 1   5.991714640 12.028145890 10.020344106    .001397149 .000241639 .002255527    183
 1   7.981074335 12.024950287 7.978968531    .001776655 .000646460 .001505494    185
 1   10.008861309 14.052168323 7.973999796    -.000070808 -.000581225 .005231951    186
 1   10.010015115 12.025591164 9.961701527    .000146437 .000058670 .006980924    187
 1   8.003096246 14.038275890 10.003536488    .000295639 -.002570494 .006616669    188
 1   -.070292841 -.070153858 8.006030586    -.001621046 .000371359 -.001003314    129
 1   14.037422347 16.053706494 10.017548680    -.000178179 -.000339246 .003007536    143
 1   -.067825211 12.027446244 8.001458729    -.002967342 .000916745 .000510127    177
 1   16.057482477 14.043508228 10.019046689    .000247229 -.001604495 -.002143320    180
 1   14.064459166 12.024422372 5.982015291    -.002728016 .001558043 -.000112481    127
 1   12.038164747 14.053727049 5.981985190    -.002002832 -.001823571 -.000044289    128
 1   12.036512379 12.024265306 7.973990469    -.000599973 -.000053441 .004869356    189
 1   14.052267202 14.046565425 7.994679319    -.001014795 .000938696 .000696004    190
 1   14.031648614 12.027406611 10.014304375    -.000682005 -.001724587 .003038918    191
 1   12.019413542 14.034864741 10.000143396    -.001179547 -.001391193 .004422401    192
 1   1.938562368 1.929290869 16.049749979    .000267957 .001363873 .004168987    2
 1   3.966089560 3.954129405 16.049032360    -.001598547 .001922230 .002062925    21
 1   1.938674332 1.929519555 12.051818184    .000283727 .001324429 -.003972618    194
 1   3.975671838 1.921930003 14.050869383    -.002428001 .003936072 -.000006807    200
 1   1.937362426 3.953358108 14.050869759    .000956526 .000975026 .000091671    211
 1   3.966186536 3.954345341 12.052803719    -.001554817 .001815011 -.002015572    213
 1   1.939513638 16.050342693 14.050655960    .001001087 .002551330 .000136438    195
 1   3.974757818 16.049947609 12.043877948    -.001370996 .001604958 -.001600349    197
 1   5.994476647 1.927233465 16.057334217    -.003619662 .001354122 .000641061    6
 1   10.016233615 1.936806339 16.073609336    -.002649744 .003422899 -.002243235    10
 1   8.002490678 3.958742601 16.065074491    -.001699891 .000534589 .001333113    25
 1   5.994483895 1.927558724 12.044496117    -.003576078 .001192541 -.000701269    198
 1   10.016015202 1.936989400 12.028115994    -.002540678 .003469278 .002123125    202
 1   8.008705704 1.936586864 14.050966879    -.005894762 -.000918270 -.000114807    204
 1   5.988553306 3.954880276 14.051045894    -.001065985 .003310892 -.000029518    215
 1   8.002396572 3.958936353 12.036867799    -.001634672 .000482237 -.001348274    217
 1   10.016095931 3.958847810 14.050929653    .000487327 .001220476 -.000031179    219
 1   6.016854332 16.027821688 14.050857344    -.002444723 .001815423 -.000017650    199
 1   16.051450868 3.955061439 16.049989744    .001348782 .000095932 .004179747    17
 1   14.030093291 1.922605347 16.060593843    .000651051 .005671514 .001111944    14
 1   16.039105645 1.917539315 14.050760894    .008721034 .008616782 .000020123    196
 1   16.051536255 3.955242841 12.051667544    .001367807 .000037298 -.004030661    209
 1   14.030022529 1.922748317 12.041091050    .000757599 .005829054 -.001311905    206
 1   12.023694789 1.934059127 14.050881380    -.001806779 -.000764951 -.000152221    208
 1   12.026439433 3.958850935 12.035298862    .001503483 .000875403 -.001341717    221
 1   14.034236821 3.956557309 14.050812514    .002680412 .000754106 .000085403    223
 1   1.938683104 5.981766994 16.049244177    .001999807 -.001691908 .001958375    18
 1   1.942949761 10.018352393 16.065382035    .000441699 -.001859029 .001208782    34
 1   3.971540018 8.004887734 16.054721419    -.000995068 -.000193162 .002706312    37
 1   1.938902633 5.981777300 12.052580724    .001877431 -.001649804 -.001937102    210
 1   3.972265695 5.988063450 14.051043222    -.000481042 -.000658095 .000007616    216
 1   1.943046283 10.018084222 12.036323926    .000536434 -.001785602 -.001197001    226
 1   1.939281681 8.004276278 14.050959054    .003357717 -.001244601 -.000005576    227
 1   3.971674168 8.004794206 12.047223314    -.000977571 -.000200549 -.002705640    229
 1   3.964545524 10.018427088 14.050932045    -.002446962 .001125789 -.000000085    232
 1   16.044431755 5.991763959 14.050907310    .003900601 -.002318554 -.000011182    212
 1   5.988972731 5.987449647 16.054620459    -.000127624 -.001021307 .002644841    22
 1   6.001265495 10.027709973 16.060918033    -.002752715 -.001022485 -.001188227    38
 1   8.011390221 8.017937581 16.060749675    -.000965244 -.002853991 -.000967232    41
 1   10.012343930 10.059726700 16.051349656    -.000371656 .001054413 -.004004484    42
 1   5.988991804 5.987497014 12.047451046    -.000161423 -.001032523 -.002736746    214
 1   10.014614289 5.981563292 12.031980223    -.000543630 -.002555724 -.001082973    218
 1   8.002443632 5.980813055 14.051083539    .001017279 -.002364071 -.000014360    220
 1   6.001361876 10.027556408 12.041105407    -.002839929 -.001014599 .000963153    230
 1   6.013095991 8.029290721 14.051109231    -.005478445 -.005361898 -.000047335    231
 1   8.011288358 8.017816120 12.041371938    -.000897794 -.002844504 .000751296    233
 1   10.012148182 10.059394187 12.050444178    -.000323916 .001229038 .003888037    234
 1   10.013579468 7.990034691 14.051069394    .000207225 -.001162389 -.000154561    235
 1   8.068065502 10.084778357 14.051060518    -.005878330 -.006440499 -.000212389    236
 1   16.050375432 8.009954849 16.057880873    .001123304 -.003636554 .000683691    33
 1   14.023792019 10.030047591 -.074504112    .000829819 .000680854 .000031004    46
 1   16.050552909 8.009721475 12.043873389    .001011925 -.003457418 -.000690210    225
 1   16.059365349 10.023803482 14.050820350    -.000795731 -.006030207 -.000060612    228
 1   14.033850609 5.991186913 12.043420794    .001798777 -.001332596 -.001363147    222
 1   12.025183601 5.984249699 14.050881374    .000816816 -.003449863 .000058793    224
 1   12.013929336 8.020481915 12.037896195    .002207641 -.002816583 .002476000    237
 1   14.023870557 10.029777343 12.037837045    .000785558 .000730342 -.000013859    238
 1   14.012406259 8.032566694 14.050866881    .001862482 -.002500099 .000005434    239
 1   11.959122085 10.084274359 14.050785004    .001250010 -.004269341 .000053758    240
 1   1.942119277 14.042488495 12.035384919    .000776468 .001444544 -.001505043    242
 1   1.942408294 12.031790553 14.050693701    .001146740 .000523615 .000064235    243
 1   3.965060339 12.030698227 12.031716311    -.002586473 -.000405097 -.000966992    245
 1   3.967524972 14.041175963 14.050735937    -.003491232 .000800228 .000019909    248
 1   16.055355529 14.039173854 14.050680912    .000000447 -.001638603 -.000091143    244
 1   8.015511401 16.038424328 16.062598587    .000055105 .001348473 .000508262    9
 1   8.042995584 12.028302322 16.051805276    .001238335 -.000507426 -.004234073    57
 1   10.012250255 13.993962699 -.084687422    .000157443 .001474159 -.005968017    58
 1   8.015320628 16.038666104 12.039008976    .000124345 .001225348 -.000582729    201
 1   10.015549505 16.065218555 14.050709094    -.000150859 .002468474 .000099346    203
 1   6.004215800 14.029946012 12.038197890    -.002496599 .002173953 .002456932    246
 1   5.973398569 12.029748956 14.050930743    -.000935555 .000103471 -.000125112    247
 1   8.043023124 12.028181797 12.050009975    .001222012 -.000567922 .004080345    249
 1   10.012045189 13.994121895 12.047635782    .000117822 .001340661 .006072991    250
 1   11.954852968 13.968949836 14.050351917    .002618348 .002991210 .000474353    251
 1   8.069068324 13.973927374 14.050727661    -.004678129 .001802849 .000123475    252
 1   16.044128460 16.046094964 16.060337264    .005901281 .000872705 .001387688    1
 1   12.010443552 16.034531489 16.067001878    .003818523 .001874619 -.002955720    13
 1   16.059029303 12.031603340 16.073861563    .003835687 -.002838980 -.001994935    49
 1   11.980211208 12.026434101 -.083608732    .000796326 .000992357 -.006368989    61
 1   14.018923025 14.025670606 16.067246062    .002061926 .003970272 -.003074767    62
 1   16.044104033 16.046177231 12.041215511    .006090128 .000908142 -.001543094    193
 1   12.010263264 16.034852782 12.034406894    .003949544 .001583247 .002899198    205
 1   14.003467284 16.019672738 14.050682683    .005420614 .005057812 -.000026432    207
 1   16.059057630 12.031415549 12.027648750    .003933156 -.002778636 .001882683    241
 1   11.980015208 12.026056093 12.046612159    .000900883 .001233020 .006553161    253
 1   14.018895872 14.025573876 12.034063047    .001965476 .004010569 .003125134    254
 1   14.050121549 12.029619618 14.050634587    .002498681 .000618742 -.000004113    255
