         255
Lattice=" 16.138199 .000000 .000000 .000000 16.138199 .000000 .000000 .000000 16.138199 " properties=species:S:1:pos:R:3:force:R:3:id:I:1 energy:-871.048875588
 1   3.967367040 1.946859443 1.928932369    .001228048 .000226894 .002135119    8
 1   1.951142955 3.966500622 1.922834327    -.001850883 -.001764424 .003843769    19
 1   1.955386365 1.957332824 3.952278703    -.001270614 -.001985393 .001930545    66
 1   3.968189802 3.971714428 3.946308970    .000079417 -.001725741 .002091419    85
 1   3.967699006 16.062955522 16.065146426    -.000385801 .001551243 .001264478    5
 1   8.007137178 1.939012758 1.939027527    -.000118686 .002741910 .001285373    12
 1   5.988498767 3.962834539 1.925992111    -.001741227 .002691019 .002105294    23
 1   10.018305495 3.959457231 1.940873275    .002329253 -.001863982 .000675696    27
 1   5.978036726 1.953643159 3.954275731    .001463100 -.000827788 .000920033    70
 1   10.014225052 1.955015650 3.963603705    .000500009 -.002120006 .001463169    74
 1   7.993303273 3.967520748 3.954730822    .002483173 .000897652 .001204964    89
 1   16.067006466 1.944601707 1.935718100    .000283067 .000361347 .000399924    4
 1   -.057583641 3.970797165 3.952420807    -.002264292 -.001099987 .001961411    81
 1   12.036958711 1.935137110 1.942691976    -.000255886 -.001613243 -.002479270    16
 1   14.053062326 3.958766186 1.938097905    -.001080753 .002088684 .001767915    31
 1   14.061424497 1.957887621 3.964344888    -.001125786 -.002262242 -.002327384    78
 1   12.035836162 3.965906761 3.959808564    .001669101 -.000648067 -.000630006    93
 1   12.040060327 -.054822807 3.983611878    -.000608093 -.001835197 -.001225662    77
 1   12.034329872 3.962189782 16.069871069    .000393765 .002432812 .001021004    29
 1   3.970757166 5.986436745 1.919408485    -.000875963 -.000909557 .004586380    24
 1   1.947450469 8.004524408 1.926061869    .002668684 -.001771280 .002267376    35
 1   3.968785193 10.020489025 1.932605178    -.001143788 -.001158780 .002267022    40
 1   1.956718154 5.983767844 3.946253826    -.001820830 .000075169 .002330721    82
 1   1.951999089 10.009790290 3.954772314    .000850061 .002468777 .001195207    98
 1   3.967786152 7.996863947 3.948211970    .000670137 .001319141 .002845403    101
 1   8.003980507 5.984660827 1.932655803    -.001059468 -.001087792 .002398340    28
 1   5.989685481 8.005742418 1.929429141    .000714987 .000842415 .001835704    39
 1   10.021354821 8.006998716 1.944895220    .001488339 -.000127635 .001892535    43
 1   8.011168358 10.027176574 1.946318649    .000580493 .000473621 -.003289686    44
 1   5.980549447 5.983461132 3.948318510    .001449364 .000664178 .002682658    86
 1   10.013638967 5.980713980 3.960216835    .000489724 -.000205056 -.001044110    90
 1   5.980952941 10.013783049 3.957921783    .001744431 -.000462339 .000848135    102
 1   7.997173104 7.996938031 3.958087786    -.000383739 .001804345 .000823114    105
 1   10.018578733 10.013059280 3.968624821    -.001110774 .000997294 -.000661263    106
 1   10.022065863 5.984335549 16.066525897    -.001264885 -.000855127 .001497469    26
 1   -.068264193 5.983022427 1.929268489    .000199129 .001298664 .002225455    20
 1   -.076543385 10.022891630 1.939553421    .002594782 -.000156327 .001030766    36
 1   -.061260569 7.993731097 3.954524932    -.001015647 .001535569 .001014142    97
 1   12.035207474 5.980491670 1.946778331    -.000866534 .001633566 .000913464    32
 1   14.049803362 8.005123561 1.942603099    .001305262 .000043938 -.000614458    47
 1   12.036927820 10.033472676 1.948255376    .002089246 .000745345 -.002823136    48
 1   14.059121317 5.979153502 3.957005989    -.001024746 .001889236 .001267197    94
 1   12.037459325 7.995077025 3.962041138    -.000984151 .002703707 -.000473944    109
 1   14.058303022 10.009981357 3.967267141    .000747183 .001284254 -.001165698    110
 1   14.047119967 5.983728256 16.065614870    .001824116 -.000416895 .001176271    30
 1   12.033330887 8.005090958 16.074217058    .002660907 -.003500911 -.002303448    45
 1   1.942444103 16.068597502 1.937496345    .002163548 -.000952424 .001884878    3
 1   3.963558594 -.063996059 3.956474080    .001835361 -.000662482 .001349781    69
 1   1.943081430 12.034661507 1.940636106    -.001704080 .002202578 .000677715    51
 1   3.964467669 14.051271133 1.946096364    .001801777 -.000998145 .001002780    56
 1   1.949616185 14.051904970 3.959452887    -.000451909 .001665327 -.000640612    114
 1   3.964868254 12.030342793 3.959844879    -.000141196 .000357484 -.001041288    117
 1   1.945719835 14.050098353 16.069352870    .002302487 .000512456 .001233535    50
 1   3.968378519 12.038147463 16.066445108    -.001058608 -.001274633 .001293176    53
 1   5.989962938 -.072918845 1.941725948    -.000184696 .001194329 -.000463838    7
 1   10.027003748 -.076653406 1.958626102    .002431888 -.000073810 -.006409788    11
 1   7.994553687 -.064368127 3.966847285    .001116145 .000789509 -.001043120    73
 1   5.991444326 12.037753929 1.944463663    -.000190849 .001293585 .001809267    55
 1   10.030030142 12.045669163 1.962232446    .001507717 .001318520 -.004695813    59
 1   8.018749064 14.052712125 1.947172633    .000456984 .002031524 -.002426391    60
 1   5.979774585 14.053458004 3.961274682    .002545781 -.001066010 -.000184159    118
 1   7.997402924 12.034817376 3.968367706    .001006810 -.001249620 -.000516496    121
 1   10.013222905 14.056226994 3.988997390    .000448557 -.000152334 -.005239140    122
 1   5.989518722 14.049320404 16.073736971    -.003247243 .002377343 -.002405456    54
 1   -.058286736 -.060967395 3.964210709    -.002149819 -.001111684 -.002344374    65
 1   14.048450210 16.064621686 1.955240480    .000175427 .000138793 -.003870344    15
 1   16.056560495 14.053001199 1.942050790    -.001505135 -.000380927 -.002197133    52
 1   -.061000661 12.030468952 3.963790278    -.002119934 .000378397 .001224594    113
 1   14.045825617 12.042654222 1.959147380    -.000372938 .002205949 -.006830431    63
 1   12.038814039 14.054643910 1.999939356    .000053668 -.000133759 -.006825249    64
 1   12.040306970 12.028786887 3.988912583    .000013701 .000485272 -.004933626    125
 1   14.067041118 14.056257219 3.983604695    -.001587891 -.000933824 -.001119100    126
 1   3.965246137 1.959572813 5.981639083    .000591493 -.002213119 .000126155    72
 1   1.959531850 3.974557235 5.981706555    -.001083767 -.000997322 .000035918    83
 1   1.955411174 1.957371207 8.011217969    -.001187023 -.001925149 -.001861568    130
 1   3.967414063 1.947037826 10.034408328    .001302426 .000107951 -.001979750    136
 1   1.951257469 3.966670416 10.040491006    -.001850951 -.001755146 -.003724048    147
 1   3.968248011 3.971871255 8.016991048    .000101648 -.001772161 -.001950362    149
 1   7.988150680 1.959066602 5.981646762    .002802139 -.003138260 .000135036    76
 1   5.975150264 3.972574793 5.981646332    .003489692 -.002861787 .000036260    87
 1   10.010016773 3.969638804 5.981764963    .003343875 .002358900 .000000148    91
 1   5.977935688 1.953839558 8.008931275    .001558207 -.000994431 -.000670901    134
 1   10.014129448 1.955290642 7.999951869    .000515838 -.002360661 -.001446224    138
 1   8.006887888 1.939223672 10.024304059    .000056425 .002604905 -.001102415    140
 1   5.988494732 3.963085182 10.037393763    -.001693961 .002583558 -.001983153    151
 1   7.993240474 3.967700454 8.008707924    .002506780 .000841662 -.001212162    153
 1   10.018233462 3.959591058 10.022820181    .002277021 -.001887139 -.000892077    155
 1   10.010246068 -.052453178 5.981900908    .000918194 -.005453973 -.000077843    75
 1   -.052153042 1.963270027 5.981849871    -.003561505 -.003434588 -.000010522    68
 1   16.067034116 1.944625100 10.027822861    .000344213 .000428865 -.000471978    132
 1   -.057590917 3.970909080 8.011088723    -.002185319 -.001075298 -.001886901    145
 1   12.038271134 1.965165572 5.981919093    .000544164 .000037090 -.000043879    80
 1   14.062596089 3.973680514 5.981839444    .000031272 -.002454904 -.000035044    95
 1   14.061423133 1.957906943 7.999418159    -.001098371 -.002184211 .002215744    142
 1   12.036908934 1.935089753 10.020841752    -.000315112 -.001397077 .002508835    144
 1   12.035831887 3.966161647 8.003937108    .001622812 -.000832536 .000397525    157
 1   14.053024297 3.959001025 10.025491401    -.000986165 .001870410 -.001902400    159
 1   14.069426359 -.052452683 5.981852598    -.002388652 -.002577412 .000076124    79
 1   12.040052354 -.054849158 7.980053414    -.000651415 -.001817932 .001234952    141
 1   3.968113146 5.983800695 5.981666596    .000593828 .000468260 -.000018870    88
 1   1.957521369 7.991279552 5.981594937    -.003003059 .003484321 .000068281    99
 1   3.965079748 10.007648280 5.981647914    .001385056 .002997859 -.000014454    104
 1   1.956850153 5.983848288 8.017015711    -.001864090 .000110244 -.002168807    146
 1   3.970974971 5.986700286 10.043961917    -.000992503 -.001030885 -.004472278    152
 1   1.952141150 10.009708060 8.008603593    .000794369 .002475494 -.001196944    162
 1   1.947674221 8.004539139 10.037303816    .002542268 -.001715937 -.002116298    163
 1   3.967976380 7.996991368 8.015125935    .000541882 .001216046 -.002832084    165
 1   3.968986645 10.020483375 10.031029805    -.001216830 -.001209587 -.002446228    168
 1   7.990867342 5.980781257 5.981686607    .003059060 .001420969 -.000036337    92
 1   5.977782221 7.994095891 5.981594729    .001789258 .001737059 .000024187    103
 1   10.013213601 7.992318063 5.981673284    .001463478 -.001363646 .000018380    107
 1   7.992894054 10.009269384 5.981558722    .001772516 .001573049 .000129051    108
 1   5.980674086 5.983695585 8.015086094    .001319226 .000502140 -.002757628    150
 1   10.013565382 5.980774446 8.003332594    .000570811 -.000175062 .000922014    154
 1   8.004016897 5.984889912 10.030997631    -.001126617 -.001163513 -.002558644    156
 1   5.981028657 10.013777088 8.005389550    .001688463 -.000487174 -.000816389    166
 1   5.989936560 8.006013054 10.034224884    .000468188 .000572207 -.001985350    167
 1   7.997167993 7.997064530 8.005238633    -.000391875 .001680036 -.000766890    169
 1   10.018451744 10.012987635 7.994781953    -.001037547 .001012783 .000665530    170
 1   10.021242171 8.007087106 10.018655916    .001574622 -.000287063 -.001978241    171
 1   8.011149467 10.027164839 10.017345213    .000497610 .000373139 .003056884    172
 1   -.054951861 5.980742947 5.981621461    -.002634737 .000672547 .000097498    84
 1   -.056271305 10.004203158 5.981597965    -.003244409 .002822447 .000123799    100
 1   -.068119445 5.983173016 10.034091849    .000059630 .001293354 -.002080138    148
 1   -.061070947 7.993631044 8.008610537    -.001190145 .001695624 -.000717069    161
 1   -.076345886 10.022625592 10.023827909    .002497099 .000053257 -.000919205    164
 1   12.036051994 5.979402184 5.981682301    .001092261 -.000131185 .000085753    96
 1   14.062795028 7.987671117 5.981548206    -.004107275 .001702768 .000186779    111
 1   12.040334084 10.001122241 5.981774956    -.001573248 .002505454 -.000030451    112
 1   14.059134698 5.979310556 8.006395622    -.001045229 .001800477 -.001177157    158
 1   12.035127873 5.980709214 10.016997844    -.000867201 .001591265 -.001368845    160
 1   12.037430254 7.994930644 8.001291290    -.000977545 .002855080 .000637259    173
 1   14.058540213 10.009695420 7.995988888    .000467644 .001517693 .001429405    174
 1   14.049947677 8.005051062 10.020787904    .001120460 .000110878 .000734087    175
 1   12.036995837 10.033166919 10.014999583    .001939246 .000928635 .003032118    176
 1   1.957867199 -.060416948 5.981823642    -.002411723 .000327650 -.000020901    67
 1   1.942596571 16.068553825 10.026070143    .002098239 -.000926648 -.001976019    131
 1   3.963615847 -.063939649 8.006954470    .001830125 -.000737551 -.001275857    133
 1   1.953857498 12.026640187 5.981723777    .002294331 .003234606 .000022632    115
 1   3.963830213 14.052036121 5.981736017    -.000353449 .001157988 -.000004010    120
 1   1.949783447 14.051862772 8.004263791    -.000561864 .001607140 .000428678    178
 1   1.943184293 12.034527048 10.023037915    -.001623108 .002180511 -.000878470    179
 1   3.964876033 12.030211260 8.003681914    -.000068530 .000437417 .000901112    181
 1   3.964692493 14.051147669 10.017556132    .001615950 -.000955699 -.001223248    184
 1   -.051344400 14.054389227 5.981848739    .000524998 .000553984 .000003704    116
 1   5.972209934 -.060290244 5.981607797    .001596883 -.003848855 .000129238    71
 1   5.989847485 16.065425257 10.021629627    -.000040893 .001020722 .000559987    135
 1   7.994275807 -.064199824 7.996433515    .001355966 .000596922 .001374349    137
 1   10.026714027 -.076480439 10.004600736    .002617440 -.000297079 .006651983    139
 1   5.976494054 12.029823590 5.981659534    -.001304406 .001340798 .000021765    119
 1   10.011481061 12.027190118 5.981759098    .001961406 .002119907 .000056408    123
 1   7.985545266 14.056170472 5.981764847    .002656640 -.001464494 -.000009622    124
 1   5.979605960 14.053391555 8.002087730    .002753821 -.001040361 .000262233    182
 1   5.991534757 12.037596895 10.019082508    -.000324224 .001368423 -.001920460    183
 1   7.997297717 12.034679443 7.994978584    .001054698 -.001196135 .000682999    185
 1   10.013081092 14.056125454 7.974681805    .000483316 -.000128081 .005006680    186
 1   10.029817558 12.045462629 10.001288414    .001594190 .001363454 .004599639    187
 1   8.018435724 14.052748758 10.016080889    .000650758 .001894479 .002652729    188
 1   -.058260597 -.061032095 7.999511767    -.002090059 -.001045370 .002264410    129
 1   14.048411948 16.064480764 10.008416381    .000254559 .000263448 .003642039    143
 1   -.060726128 12.030332986 7.999692084    -.002353878 .000407982 -.001162080    177
 1   16.056545366 14.052860794 10.021565277    -.001339254 -.000387219 .002040659    180
 1   14.069629405 12.026032768 5.981840506    -.005226800 .000921252 -.000023533    127
 1   12.043266174 14.059109174 5.981880327    -.003743223 -.003538508 .000037739    128
 1   12.040290860 12.028629276 7.974748163    -.000049282 .000511138 .004724126    189
 1   14.067116019 14.056159977 7.980029438    -.001649599 -.000911018 .001124410    190
 1   14.046034420 12.042333784 10.004112924    -.000562796 .002399234 .007084113    191
 1   12.038767453 14.054547463 9.963492479    .000038349 -.000133218 .006835519    192
 1   1.939341457 1.938145987 16.054633748    .001151539 .000007656 .002803138    2
 1   3.972256096 3.960721280 16.049890923    -.001900057 .001602895 .001881149    21
 1   1.939435838 1.938187696 12.046877787    .001103524 .000026014 -.002775352    194
 1   3.971632513 1.938975579 14.050781591    -.003172117 .000723802 .000033637    200
 1   1.939275581 3.955209315 14.050738032    .000367549 .000190013 .000032345    211
 1   3.972326743 3.960896596 12.051648117    -.001907389 .001522423 -.001741984    213
 1   1.946369061 16.062881231 14.050729005    .002118533 -.001223885 .000061405    195
 1   3.967894027 16.062975113 12.036493428    -.000585601 .001514975 -.001258666    197
 1   5.998827217 1.932721006 16.057937974    -.001244535 .003526973 .000480751    6
 1   10.034795880 1.923522474 16.063444666    -.002245922 .002101348 -.002554097    10
 1   8.014483265 3.952214807 16.058420167    -.001560909 .001307848 .001440515    25
 1   5.998785466 1.932867297 12.043740478    -.001170540 .003427259 -.000527436    198
 1   10.034589872 1.923350477 12.038189138    -.001979341 .002474112 .002536409    202
 1   8.036131349 1.910942671 14.050876675    -.001628938 .002533486 -.000053788    204
 1   6.004116672 3.951307325 14.050847594    -.003956788 .002301715 .000018844    215
 1   8.014453608 3.952284373 12.043314542    -.001559672 .001384510 -.001410805    217
 1   10.023265094 3.959622188 14.050819284    -.000621013 .003326550 .000004782    219
 1   5.989629879 16.057297444 14.050917669    .001044481 .005374520 -.000123931    199
 1   16.060605684 3.955551839 16.054827719    .000137523 .001050460 .002837170    17
 1   14.037811510 1.926131340 16.060456473    .000985006 .002433912 -.001128604    14
 1   16.036697486 1.914754222 14.050716529    .004835074 .004836192 .000043003    196
 1   16.060686460 3.955701476 12.046675044    .000095089 .000978304 -.002749123    209
 1   14.037822125 1.926072159 12.041151817    .000845980 .002616962 .001065665    206
 1   12.035372531 1.954250528 14.050844437    -.000301008 .001025388 -.000226069    208
 1   12.034220279 3.962083895 12.031812123    .000463953 .002627647 -.001044181    221
 1   14.047154798 3.962860331 14.050733835    -.001360242 .002113203 .000059435    223
 1   1.945236730 5.988028968 16.049969294    .001658399 -.001986420 .001887210    18
 1   1.936130432 10.030671568 16.058509861    .001236076 -.001753442 .001346675    34
 1   3.971677452 8.012911723 16.050760207    -.000069930 -.001135808 .004153045    37
 1   1.945379543 5.988176668 12.051602639    .001604412 -.002029978 -.001771376    210
 1   3.973377852 5.989218173 14.050831823    -.001058631 -.001003763 .000065767    216
 1   1.936206354 10.030599603 12.043250697    .001272774 -.001739440 -.001321558    226
 1   1.935579390 8.020091985 14.050884191    .002213776 -.004016096 .000003513    227
 1   3.971872086 8.013049286 12.051065621    -.000198623 -.001263393 -.004114410    229
 1   3.970605922 10.029898490 14.050985849    -.000621555 -.002359843 -.000003944    232
 1   16.061429633 5.987619564 14.050816549    .001019366 -.003263602 -.000003341    212
 1   5.996772531 5.987590149 16.050734189    -.001118199 -.000066522 .004106999    22
 1   6.003923207 10.034242855 16.061163475    -.005669366 -.000615574 .000990558    38
 1   8.018228542 8.019828134 16.061101685    -.000870218 -.005771981 .001280083    41
 1   10.038512010 10.044997358 16.067614167    -.003755039 -.002088974 -.003243492    42
 1   5.996892574 5.987781668 12.051072670    -.001205891 -.000163070 -.004068841    214
 1   10.022050248 5.984553437 12.035412874    -.001411281 -.000954668 -.001635343    218
 1   8.013779246 5.986628088 14.050980566    -.002313736 -.000605733 -.000040432    220
 1   6.004103679 10.034310225 12.041055810    -.005889625 -.000741134 -.001409276    230
 1   6.008830238 8.024882018 14.051080818    -.008685569 -.008680818 -.000094687    231
 1   8.018309809 8.019988813 12.041116978    -.000996887 -.006021034 -.001703426    233
 1   10.038495289 10.044789014 12.034203282    -.003852778 -.001806415 .003284799    234
 1   10.025131448 8.008634356 14.051142936    .001552451 .000208457 -.000247031    235
 1   8.044147217 10.060070100 14.051123220    -.005053737 -.005328245 -.000214128    236
 1   16.055525795 8.014277149 16.058294702    .003437406 -.001071908 .000518150    33
 1   14.034906103 10.040550180 -.074755381    -.000656137 -.000879345 .000059279    46
 1   16.055629864 8.014259951 12.043456817    .003328319 -.001079771 -.000597240    225
 1   16.033105284 10.051555833 14.050893072    .002698840 -.001708615 -.000051993    228
 1   14.047086781 5.983859824 12.036106356    .001983983 -.000415377 -.001231891    222
 1   12.033224289 5.984241041 14.050828175    -.000759853 -.001057441 .000132668    224
 1   12.033323071 8.005250653 12.027685573    .002631312 -.003677644 .002095110    237
 1   14.034986524 10.040362591 12.038206969    -.000707970 -.000739889 .000018199    238
 1   14.041633097 8.005016044 14.050948222    .005529759 .000939889 -.000122338    239
 1   12.034734306 10.013321964 14.050905774    -.000488578 -.001972133 -.000101677    240
 1   1.945773763 14.049998320 12.032294097    .002399022 .000541729 -.001221685    242
 1   1.943288761 12.039122881 14.050804722    .003160773 -.000598100 .000067763    243
 1   3.968627774 12.038052896 12.035452191    -.001259146 -.001266983 -.001408792    245
 1   3.968266047 14.049110807 14.050821631    -.001268749 -.000802279 .000071131    248
 1   16.075347092 14.051015484 14.050829352    .001197612 -.000139812 -.000096825    244
 1   8.026089122 16.050168122 -.075732181    -.001402975 -.000153083 .000640729    9
 1   8.029612397 12.054339050 16.067234516    -.001658444 -.003735834 -.003160710    57
 1   10.071070958 14.052738257 -.087081669    -.001887973 .000539495 -.004245841    58
 1   8.025850933 16.050271559 12.039126950    -.001277058 -.000315417 -.000565713    201
 1   10.089769467 15.997859207 14.050788453    -.001577236 .004558691 -.000049259    203
 1   5.989670610 14.049273569 12.028107417    -.003487036 .002371137 .002250104    246
 1   5.992653487 12.041057933 14.051126471    .000818542 .001524837 -.000245180    247
 1   8.029484368 12.054314782 12.034591124    -.001524006 -.003848810 .003170108    249
 1   10.070788970 14.052882647 12.050053772    -.001698138 .000125141 .004839587    250
 1   10.093227372 12.107630727 14.050584356    -.002223651 -.001978550 .000110943    251
 1   7.998656070 14.049957677 14.050884568    -.001894677 -.000261765 -.000108499    252
 1   16.047513273 16.053642138 16.059986659    .002518406 .000998553 -.000845258    1
 1   12.036717448 16.022592606 16.050678769    .000608069 -.001674941 -.004585286    13
 1   16.044953138 12.050554751 16.063337492    .002392504 -.002220748 -.002421737    49
 1   12.037759466 12.084550543 -.085798060    -.000111498 -.001102930 -.004770327    61
 1   14.005066917 14.052521315 16.049777125    -.001274884 .000460852 -.004240804    62
 1   16.047480750 16.053503640 12.041673549    .002651563 .001121232 .000658905    193
 1   12.036597399 16.022473427 12.050970929    .000655042 -.001468483 .004480979    205
 1   13.981396298 15.998332171 14.050804336    .005835519 .005226551 -.000068682    207
 1   16.044878976 12.050404181 12.038349981    .002539642 -.002185830 .002363318    241
 1   12.037831539 12.084250475 12.048765319    -.000445213 -.000957609 .005430259    253
 1   14.004885821 14.052325337 12.051948022    -.001072748 .000575800 .004048357    254
 1   13.981504877 12.104134930 14.050810516    .004503301 -.001027902 -.000067346    255
