generated by phonopy                    
   1.00000000000000     
     8.0544869477662555    0.0000000000000000    0.0000000000000000
     0.0000000000000000    8.0544869477662555    0.0000000000000000
     0.0000000000000000    0.0000000000000000    8.0544869477662555
   Al
    31
Direct
  0.7527606718232186 -0.0000000007773170  0.7527610360415850
  0.5000000008155966  0.4999999975797014  0.0000000028373524
  0.5000000016942551 -0.0000000028419786 -0.0000000015184646
  0.0000000002863355  0.4999999991664680  0.0000000037022205
  0.0000000009994153  0.0000000001352153  0.5000000100948654
  0.5000000003329718  0.0000000002452602  0.5000000017586219
 -0.0000000010806446  0.5000000007681821  0.5000000021241338
  0.4999999997880010  0.4999999994155931  0.5000000016377006
  0.2472392736258302  0.2472392109597071  0.0000000013914699
  0.7527607202551461  0.2472392105120538 -0.0000000009185591
  0.2472392807677229  0.7527607871996571 -0.0000000033650749
  0.7527607230594127  0.7527607858259210 -0.0000000069152590
  0.2507609947077210  0.2507609923030553  0.4999999950531533
  0.7492390040831817  0.2507609958588277  0.4999999948755040
  0.2507609927075352  0.7492390073395150  0.4999999984828443
  0.7492390042389568  0.7492390060326147  0.4999999996338201
  0.2472393314174631  0.0000000015195308  0.2472389632042107
  0.7527606685026091  0.0000000005124116  0.2472389617594815
  0.2507609832426193  0.5000000008372085  0.2507608917071659
  0.7492390135308385  0.5000000017915520  0.2507608929565798
  0.2472393344307402  0.0000000013886970  0.7527610362377356
  0.2507609900548495  0.5000000006481150  0.7492391044222555
  0.7492390135774046  0.5000000006104548  0.7492391085601433
 -0.0000000011973992  0.2472393929712305  0.2472390941231765
  0.5000000014269397  0.2507609433891780  0.2507608520735460
 -0.0000000016333753  0.7527606104414157  0.2472390843111366
  0.5000000009348707  0.7492390565539619  0.2507608532051293
 -0.0000000003497066  0.2472393855047281  0.7527609162964292
  0.4999999991088414  0.2507609446909791  0.7492391447521216
  0.0000000008139326  0.7527606139531369  0.7527609133424966
  0.4999999980347173  0.7492390554649249  0.7492391481324787
 
  0.00000000E+00  0.00000000E+00  0.00000000E+00
  0.00000000E+00  0.00000000E+00  0.00000000E+00
  0.00000000E+00  0.00000000E+00  0.00000000E+00
  0.00000000E+00  0.00000000E+00  0.00000000E+00
  0.00000000E+00  0.00000000E+00  0.00000000E+00
  0.00000000E+00  0.00000000E+00  0.00000000E+00
  0.00000000E+00  0.00000000E+00  0.00000000E+00
  0.00000000E+00  0.00000000E+00  0.00000000E+00
  0.00000000E+00  0.00000000E+00  0.00000000E+00
  0.00000000E+00  0.00000000E+00  0.00000000E+00
  0.00000000E+00  0.00000000E+00  0.00000000E+00
  0.00000000E+00  0.00000000E+00  0.00000000E+00
  0.00000000E+00  0.00000000E+00  0.00000000E+00
  0.00000000E+00  0.00000000E+00  0.00000000E+00
  0.00000000E+00  0.00000000E+00  0.00000000E+00
  0.00000000E+00  0.00000000E+00  0.00000000E+00
  0.00000000E+00  0.00000000E+00  0.00000000E+00
  0.00000000E+00  0.00000000E+00  0.00000000E+00
  0.00000000E+00  0.00000000E+00  0.00000000E+00
  0.00000000E+00  0.00000000E+00  0.00000000E+00
  0.00000000E+00  0.00000000E+00  0.00000000E+00
  0.00000000E+00  0.00000000E+00  0.00000000E+00
  0.00000000E+00  0.00000000E+00  0.00000000E+00
  0.00000000E+00  0.00000000E+00  0.00000000E+00
  0.00000000E+00  0.00000000E+00  0.00000000E+00
  0.00000000E+00  0.00000000E+00  0.00000000E+00
  0.00000000E+00  0.00000000E+00  0.00000000E+00
  0.00000000E+00  0.00000000E+00  0.00000000E+00
  0.00000000E+00  0.00000000E+00  0.00000000E+00
  0.00000000E+00  0.00000000E+00  0.00000000E+00
  0.00000000E+00  0.00000000E+00  0.00000000E+00
