         343
Lattice=" 19.208800 .000000 .000000 .000000 19.011800 .000000 .000000 .000000 30.000000 " properties=species:I:1:pos:R:3:forces:R:3:id:I:1 energy=-1771.358667743
 1   7.493797952 7.425923618 14.575583647    .000163762 .000227036 -.000033080    1
 1   7.484756919 12.376387892 14.574997935    -.000046556 .000082031 -.000037568    2
 1   10.342639323 7.425866561 14.575587228    .000197344 .000104407 .000089801    3
 1   10.351975869 12.376305315 14.575008329    .000018853 .000147214 .000010939    4
 1   11.776217843 9.908851172 14.575682102    .000069128 .000164275 .000027078    5
 1   6.060367348 9.909020647 14.575671426    .000017136 -.000001852 .000035629    6
 1   8.918288513 9.903794480 14.586553351    .000116330 .000168113 -.000122879    7
 1   .686030000 .396080000 1.120280000    .000000000 .000000000 .000000000    8
 1   2.058090000 2.772560000 1.120280000    .000000000 .000000000 .000000000    9
 1   .686030000 3.564720000 3.360850000    .000000000 .000000000 .000000000    10
 1   2.058090000 1.188240000 3.360850000    .000000000 .000000000 .000000000    11
 1   .686030000 1.980400000 5.601410000    .000000000 .000000000 .000000000    12
 1   2.058090000 4.356880000 5.601410000    .000000000 .000000000 .000000000    13
 1   .687267214 .394235490 7.844814531    .000047054 -.000021080 .000008821    14
 1   2.059404694 2.770133061 7.845569197    .000050423 .000021053 -.000015224    15
 1   .686609271 3.561019459 10.090124855    .000057773 -.000062744 -.000011046    16
 1   2.061772743 1.184291126 10.092166342    .000048621 -.000027623 .000025742    17
 1   .687601713 1.973695858 12.371888962    .000053389 -.000066151 .000080038    18
 1   2.059082510 4.355793155 12.374119476    -.000014077 -.000054150 -.000035555    19
 1   .686030000 5.149030000 1.120280000    .000000000 .000000000 .000000000    20
 1   2.058090000 7.525510000 1.120280000    .000000000 .000000000 .000000000    21
 1   .686030000 8.317670000 3.360850000    .000000000 .000000000 .000000000    22
 1   2.058090000 5.941190000 3.360850000    .000000000 .000000000 .000000000    23
 1   .686030000 6.733350000 5.601410000    .000000000 .000000000 .000000000    24
 1   2.058090000 9.109830000 5.601410000    .000000000 .000000000 .000000000    25
 1   .684317317 5.146831076 7.844760354    .000044884 .000002379 -.000000208    26
 1   2.052993831 7.522886667 7.842931596    .000005605 .000052099 .000000855    27
 1   .686146955 8.321490195 10.096357437    .000012008 -.000004331 -.000017854    28
 1   2.054409444 5.939186470 10.093643596    -.000014548 -.000009367 .000000900    29
 1   .686487524 6.734276002 12.375159696    -.000025038 -.000068660 -.000063258    30
 1   2.071015874 9.107313514 12.385388652    .000008117 -.000019030 -.000006542    31
 1   .686030000 9.901990000 1.120280000    .000000000 .000000000 .000000000    32
 1   2.058090000 12.278500000 1.120280000    .000000000 .000000000 .000000000    33
 1   .686030000 13.070600000 3.360850000    .000000000 .000000000 .000000000    34
 1   2.058090000 10.694100000 3.360850000    .000000000 .000000000 .000000000    35
 1   .686030000 11.486300000 5.601410000    .000000000 .000000000 .000000000    36
 1   2.058090000 13.862800000 5.601410000    .000000000 .000000000 .000000000    37
 1   .686818454 9.905053559 7.851192616    -.000036328 .000021954 -.000004187    38
 1   2.061388328 12.279020604 7.854496879    -.000046594 .000023504 -.000005800    39
 1   .690644131 13.070754180 10.096356953    -.000018529 -.000019414 .000016567    40
 1   2.068356416 10.695486407 10.109873716    -.000012952 -.000011903 -.000037666    41
 1   .699563850 11.482185962 12.382532726    .000034900 -.000042402 .000005505    42
 1   2.081608879 13.845522578 12.385226085    -.000008028 -.000026035 -.000016819    43
 1   .686030000 14.654900000 1.120280000    .000000000 .000000000 .000000000    44
 1   2.058090000 17.031400000 1.120280000    .000000000 .000000000 .000000000    45
 1   .686030000 17.823600000 3.360850000    .000000000 .000000000 .000000000    46
 1   2.058090000 15.447100000 3.360850000    .000000000 .000000000 .000000000    47
 1   .686030000 16.239300000 5.601410000    .000000000 .000000000 .000000000    48
 1   2.058090000 18.615700000 5.601410000    .000000000 .000000000 .000000000    49
 1   .687253897 14.654856771 7.845452001    -.000012782 -.000028268 .000012841    50
 1   2.060010337 17.029405074 7.845848517    .000020848 -.000003707 -.000020224    51
 1   .688220550 17.818805233 10.090812270    .000036765 -.000079823 -.000003227    52
 1   2.063237902 15.441093742 10.095362628    .000016548 -.000064169 -.000009887    53
 1   .692075220 16.225350211 12.373073479    -.000026363 -.000068188 .000026000    54
 1   2.063685678 18.606240350 12.373929817    -.000005741 -.000045983 .000001606    55
 1   3.430150000 .396080000 1.120280000    .000000000 .000000000 .000000000    56
 1   4.802210000 2.772560000 1.120280000    .000000000 .000000000 .000000000    57
 1   3.430150000 3.564720000 3.360850000    .000000000 .000000000 .000000000    58
 1   4.802210000 1.188240000 3.360850000    .000000000 .000000000 .000000000    59
 1   3.430150000 1.980400000 5.601410000    .000000000 .000000000 .000000000    60
 1   4.802210000 4.356880000 5.601410000    .000000000 .000000000 .000000000    61
 1   3.432961411 .394458502 7.846748390    .000030699 -.000007852 -.000019119    62
 1   4.805021910 2.773516114 7.849954802    -.000008300 .000008209 .000012846    63
 1   3.432885392 3.564158341 10.094655861    -.000018024 -.000028482 -.000002141    64
 1   4.807698823 1.190144661 10.095523631    -.000012882 .000005633 .000006733    65
 1   3.435248870 1.981707614 12.375992052    -.000008618 -.000075818 -.000008035    66
 1   4.806290516 4.372361078 12.384117725    -.000058206 -.000047185 .000006316    67
 1   3.430150000 5.149030000 1.120280000    .000000000 .000000000 .000000000    68
 1   4.802210000 7.525510000 1.120280000    .000000000 .000000000 .000000000    69
 1   3.430150000 8.317670000 3.360850000    .000000000 .000000000 .000000000    70
 1   4.802210000 5.941190000 3.360850000    .000000000 .000000000 .000000000    71
 1   3.430150000 6.733350000 5.601410000    .000000000 .000000000 .000000000    72
 1   4.802210000 9.109830000 5.601410000    .000000000 .000000000 .000000000    73
 1   3.425158315 5.146521008 7.842470394    -.000008231 .000021867 -.000001227    74
 1   4.797310510 7.523532115 7.834842908    .000015214 .000024134 .000022661    75
 1   3.423462869 8.309734137 10.078579258    .000010383 -.000001944 .000028233    76
 1   4.791216442 5.941499755 10.078035700    -.000029574 -.000004802 .000030456    77
 1   3.431947074 6.735465078 12.385125937    .000000621 -.000048963 .000060487    78
 1   4.811644187 9.089247153 12.298801238    -.000020888 -.000060738 .000052058    79
 1   3.430150000 9.901990000 1.120280000    .000000000 .000000000 .000000000    80
 1   4.802210000 12.278500000 1.120280000    .000000000 .000000000 .000000000    81
 1   3.430150000 13.070600000 3.360850000    .000000000 .000000000 .000000000    82
 1   4.802210000 10.694100000 3.360850000    .000000000 .000000000 .000000000    83
 1   3.430150000 11.486300000 5.601410000    .000000000 .000000000 .000000000    84
 1   4.802210000 13.862800000 5.601410000    .000000000 .000000000 .000000000    85
 1   3.425493320 9.900442619 7.842051386    -.000003234 .000014142 .000008425    86
 1   4.799415482 12.280164012 7.841923411    -.000011647 -.000056025 -.000003444    87
 1   3.444299797 13.062998211 10.120581301    -.000035801 -.000007110 -.000027892    88
 1   4.799851912 10.691545791 10.071245824    -.000030436 -.000028660 .000013730    89
 1   3.478416079 11.461370771 12.430203834    -.000022797 -.000037662 -.000126790    90
 1   4.849750641 13.833667264 12.429678001    -.000035451 -.000008701 -.000039560    91
 1   3.430150000 14.654900000 1.120280000    .000000000 .000000000 .000000000    92
 1   4.802210000 17.031400000 1.120280000    .000000000 .000000000 .000000000    93
 1   3.430150000 17.823600000 3.360850000    .000000000 .000000000 .000000000    94
 1   4.802210000 15.447100000 3.360850000    .000000000 .000000000 .000000000    95
 1   3.430150000 16.239300000 5.601410000    .000000000 .000000000 .000000000    96
 1   4.802210000 18.615700000 5.601410000    .000000000 .000000000 .000000000    97
 1   3.433042682 14.651825344 7.853960946    .000004606 -.000014294 -.000026984    98
 1   4.803928138 17.028596570 7.849594453    .000002588 -.000009005 -.000022028    99
 1   3.434944028 17.817735153 10.094719157    -.000014961 -.000025241 -.000028872    100
 1   4.810566115 15.436898317 10.108302817    -.000025183 .000001644 .000005648    101
 1   3.445028791 16.222642468 12.380504725    -.000044574 -.000018176 -.000012938    102
 1   4.809087048 18.615982234 12.376546727    -.000017365 -.000046838 -.000051365    103
 1   6.174270000 .396080000 1.120280000    .000000000 .000000000 .000000000    104
 1   7.546330000 2.772560000 1.120280000    .000000000 .000000000 .000000000    105
 1   6.174270000 3.564720000 3.360850000    .000000000 .000000000 .000000000    106
 1   7.546330000 1.188240000 3.360850000    .000000000 .000000000 .000000000    107
 1   6.174270000 1.980400000 5.601410000    .000000000 .000000000 .000000000    108
 1   7.546330000 4.356880000 5.601410000    .000000000 .000000000 .000000000    109
 1   6.175719448 .397475958 7.846704088    -.000009763 -.000001673 -.000023324    110
 1   7.547893620 2.777229121 7.853992617    -.000021581 -.000002799 -.000013976    111
 1   6.180157376 3.576417902 10.108642756    -.000005382 .000031190 .000029420    112
 1   7.548853790 1.196085514 10.095872812    -.000002634 -.000029971 .000000558    113
 1   6.181721293 2.000958483 12.381234005    -.000006960 -.000091373 .000051772    114
 1   7.548990666 4.415071248 12.429733026    -.000019146 -.000052772 .000027365    115
 1   6.174270000 5.149030000 1.120280000    .000000000 .000000000 .000000000    116
 1   7.546330000 7.525510000 1.120280000    .000000000 .000000000 .000000000    117
 1   6.174270000 8.317670000 3.360850000    .000000000 .000000000 .000000000    118
 1   7.546330000 5.941190000 3.360850000    .000000000 .000000000 .000000000    119
 1   6.174270000 6.733350000 5.601410000    .000000000 .000000000 .000000000    120
 1   7.546330000 9.109830000 5.601410000    .000000000 .000000000 .000000000    121
 1   6.170334486 5.147573575 7.841613948    -.000018778 -.000011211 .000050656    122
 1   7.545188421 7.522717927 7.827907809    -.000011456 .000009685 .000002691    123
 1   6.178114168 8.321097086 10.050208874    -.000037535 .000004344 -.000039901    124
 1   7.542490007 5.942665223 10.070971929    -.000019138 -.000001555 .000009605    125
 1   6.160080795 6.754606126 12.298404849    .000004517 -.000059077 .000022058    126
 1   7.555397563 9.116807405 12.298431654    -.000011969 .000034569 -.000007137    127
 1   6.174270000 9.901990000 1.120280000    .000000000 .000000000 .000000000    128
 1   7.546330000 12.278500000 1.120280000    .000000000 .000000000 .000000000    129
 1   6.174270000 13.070600000 3.360850000    .000000000 .000000000 .000000000    130
 1   7.546330000 10.694100000 3.360850000    .000000000 .000000000 .000000000    131
 1   6.174270000 11.486300000 5.601410000    .000000000 .000000000 .000000000    132
 1   7.546330000 13.862800000 5.601410000    .000000000 .000000000 .000000000    133
 1   6.170417425 9.903243937 7.827945305    -.000026089 -.000029343 -.000051368    134
 1   7.543844735 12.280898341 7.827736708    -.000009050 .000000554 -.000015752    135
 1   6.176748415 13.074030587 10.070858960    -.000024519 .000001601 .000010261    136
 1   7.549875568 10.692557407 10.047519401    .000021191 -.000006935 .000013307    137
 1   6.203055966 11.471029771 12.282195422    -.000011674 -.000041923 .000052140    138
 1   7.570710713 13.868153253 12.298205915    -.000061759 .000010655 -.000073562    139
 1   6.174270000 14.654900000 1.120280000    .000000000 .000000000 .000000000    140
 1   7.546330000 17.031400000 1.120280000    .000000000 .000000000 .000000000    141
 1   6.174270000 17.823600000 3.360850000    .000000000 .000000000 .000000000    142
 1   7.546330000 15.447100000 3.360850000    .000000000 .000000000 .000000000    143
 1   6.174270000 16.239300000 5.601410000    .000000000 .000000000 .000000000    144
 1   7.546330000 18.615700000 5.601410000    .000000000 .000000000 .000000000    145
 1   6.174901180 14.658992330 7.841241410    -.000016096 -.000052360 .000018111    146
 1   7.547525409 17.037072899 7.841886331    -.000051614 .000006277 -.000008398    147
 1   6.176764951 17.823664331 10.094742627    -.000022131 .000016357 -.000017403    148
 1   7.552092958 15.457378281 10.077182639    -.000062780 .000001517 -.000026596    149
 1   6.187138245 16.233194885 12.383503790    -.000051861 -.000021898 .000007803    150
 1   7.549287315 18.628589097 12.375534592    -.000000910 -.000052369 -.000002594    151
 1   8.918390000 .396080000 1.120280000    .000000000 .000000000 .000000000    152
 1   10.290400000 2.772560000 1.120280000    .000000000 .000000000 .000000000    153
 1   8.918390000 3.564720000 3.360850000    .000000000 .000000000 .000000000    154
 1   10.290400000 1.188240000 3.360850000    .000000000 .000000000 .000000000    155
 1   8.918390000 1.980400000 5.601410000    .000000000 .000000000 .000000000    156
 1   10.290400000 4.356880000 5.601410000    .000000000 .000000000 .000000000    157
 1   8.918380002 .400561964 7.845668253    .000002959 .000007621 -.000028338    158
 1   10.288872351 2.777227901 7.853995041    -.000023308 .000005179 .000006174    159
 1   8.918378551 3.582633943 10.120119950    -.000051819 -.000006556 -.000009862    160
 1   10.287905120 1.196084473 10.095872058    -.000003183 -.000027792 -.000019105    161
 1   8.918379162 2.013468356 12.384970111    -.000033746 -.000053400 -.000023156    162
 1   10.287744148 4.415076192 12.429742910    -.000035998 -.000006076 .000000345    163
 1   8.918390000 5.149030000 1.120280000    .000000000 .000000000 .000000000    164
 1   10.290400000 7.525510000 1.120280000    .000000000 .000000000 .000000000    165
 1   8.918390000 8.317670000 3.360850000    .000000000 .000000000 .000000000    166
 1   10.290400000 5.941190000 3.360850000    .000000000 .000000000 .000000000    167
 1   8.918390000 6.733350000 5.601410000    .000000000 .000000000 .000000000    168
 1   10.290400000 9.109830000 5.601410000    .000000000 .000000000 .000000000    169
 1   8.918382769 5.146902865 7.841833205    -.000052030 -.000025173 .000038766    170
 1   10.291571702 7.522720488 7.827914498    .000013172 -.000012306 .000022506    171
 1   8.918368538 8.322890048 10.047546390    .000012175 -.000018768 .000028019    172
 1   10.294256999 5.942676590 10.070986906    -.000023324 -.000050144 .000102298    173
 1   8.918332164 6.768832720 12.282239878    .000059936 -.000000838 .000046347    174
 1   10.281302114 9.116794295 12.298435022    -.000027341 .000053329 -.000027755    175
 1   8.918390000 9.901990000 1.120280000    .000000000 .000000000 .000000000    176
 1   10.290400000 12.278500000 1.120280000    .000000000 .000000000 .000000000    177
 1   8.918390000 13.070600000 3.360850000    .000000000 .000000000 .000000000    178
 1   10.290400000 10.694100000 3.360850000    .000000000 .000000000 .000000000    179
 1   8.918390000 11.486300000 5.601410000    .000000000 .000000000 .000000000    180
 1   10.290400000 13.862800000 5.601410000    .000000000 .000000000 .000000000    181
 1   8.918377043 9.902265092 7.822312419    .000050384 -.000027045 -.000009033    182
 1   10.292929766 12.280893967 7.827740040    -.000004066 -.000017437 -.000005966    183
 1   8.918390612 13.066089958 10.049889318    -.000033581 .000036008 -.000060640    184
 1   10.286884633 10.692551492 10.047520806    .000009095 -.000009395 .000006154    185
 1   8.918378503 11.477604623 12.298149384    -.000092071 .000041952 -.000067641    186
 1   10.266068699 13.868138231 12.298229719    .000002800 .000045338 -.000055827    187
 1   8.918390000 14.654900000 1.120280000    .000000000 .000000000 .000000000    188
 1   10.290400000 17.031400000 1.120280000    .000000000 .000000000 .000000000    189
 1   8.918390000 17.823600000 3.360850000    .000000000 .000000000 .000000000    190
 1   10.290400000 15.447100000 3.360850000    .000000000 .000000000 .000000000    191
 1   8.918390000 16.239300000 5.601410000    .000000000 .000000000 .000000000    192
 1   10.290400000 18.615700000 5.601410000    .000000000 .000000000 .000000000    193
 1   8.918388034 14.659669331 7.834179728    -.000051678 -.000025625 -.000021181    194
 1   10.289247419 17.037067515 7.841891000    -.000015774 .000030429 -.000018942    195
 1   8.918383909 17.830516646 10.093161358    .000002097 -.000000241 -.000036544    196
 1   10.284693536 15.457371718 10.077190678    -.000049555 -.000021351 -.000063172    197
 1   8.918390890 16.243650656 12.383667388    -.000013253 -.000011052 -.000079680    198
 1   10.287477069 18.628582264 12.375534133    .000023602 -.000007132 -.000004709    199
 1   11.662500000 .396080000 1.120280000    .000000000 .000000000 .000000000    200
 1   13.034600000 2.772560000 1.120280000    .000000000 .000000000 .000000000    201
 1   11.662500000 3.564720000 3.360850000    .000000000 .000000000 .000000000    202
 1   13.034600000 1.188240000 3.360850000    .000000000 .000000000 .000000000    203
 1   11.662500000 1.980400000 5.601410000    .000000000 .000000000 .000000000    204
 1   13.034600000 4.356880000 5.601410000    .000000000 .000000000 .000000000    205
 1   11.661043782 .397474187 7.846690301    -.000020388 -.000056887 -.000003543    206
 1   13.031734349 2.773520976 7.849960380    -.000016308 -.000000399 -.000011402    207
 1   11.656589110 3.576424896 10.108652931    -.000003414 -.000027474 -.000014256    208
 1   13.029050324 1.190147664 10.095521474    .000033305 -.000021529 .000008093    209
 1   11.655029753 2.000949524 12.381243021    .000003114 -.000006174 -.000007736    210
 1   13.030447618 4.372354004 12.384128117    -.000025031 .000033872 .000017447    211
 1   11.662500000 5.149030000 1.120280000    .000000000 .000000000 .000000000    212
 1   13.034600000 7.525510000 1.120280000    .000000000 .000000000 .000000000    213
 1   11.662500000 8.317670000 3.360850000    .000000000 .000000000 .000000000    214
 1   13.034600000 5.941190000 3.360850000    .000000000 .000000000 .000000000    215
 1   11.662500000 6.733350000 5.601410000    .000000000 .000000000 .000000000    216
 1   13.034600000 9.109830000 5.601410000    .000000000 .000000000 .000000000    217
 1   11.666427668 5.147574984 7.841612204    -.000011550 -.000019153 .000031667    218
 1   13.039445272 7.523539111 7.834853733    .000019072 -.000021982 .000022676    219
 1   11.658632262 8.321099183 10.050224880    -.000020897 -.000044640 .000023609    220
 1   13.045520805 5.941507820 10.078057425    -.000028708 -.000001972 .000030280    221
 1   11.676623828 6.754614082 12.298466052    -.000013046 .000008944 .000107322    222
 1   13.025091923 9.089236910 12.298819977    -.000007006 .000071028 .000000493    223
 1   11.662500000 9.901990000 1.120280000    .000000000 .000000000 .000000000    224
 1   13.034600000 12.278500000 1.120280000    .000000000 .000000000 .000000000    225
 1   11.662500000 13.070600000 3.360850000    .000000000 .000000000 .000000000    226
 1   13.034600000 10.694100000 3.360850000    .000000000 .000000000 .000000000    227
 1   11.662500000 11.486300000 5.601410000    .000000000 .000000000 .000000000    228
 1   13.034600000 13.862800000 5.601410000    .000000000 .000000000 .000000000    229
 1   11.666347924 9.903237820 7.827931747    -.000015416 -.000034246 .000054547    230
 1   13.037356550 12.280158461 7.841926380    -.000011633 .000009216 -.000005806    231
 1   11.660026612 13.074020043 10.070869774    -.000006902 .000007666 -.000008288    232
 1   13.036904048 10.691537540 10.071242277    .000034329 .000001393 .000006368    233
 1   11.633703864 11.470998587 12.282219230    .000032394 .000019752 .000034646    234
 1   12.987024487 13.833657866 12.429658173    .000011202 -.000040201 .000028480    235
 1   11.662500000 14.654900000 1.120280000    .000000000 .000000000 .000000000    236
 1   13.034600000 17.031400000 1.120280000    .000000000 .000000000 .000000000    237
 1   11.662500000 17.823600000 3.360850000    .000000000 .000000000 .000000000    238
 1   13.034600000 15.447100000 3.360850000    .000000000 .000000000 .000000000    239
 1   11.662500000 16.239300000 5.601410000    .000000000 .000000000 .000000000    240
 1   13.034600000 18.615700000 5.601410000    .000000000 .000000000 .000000000    241
 1   11.661876211 14.658981279 7.841235565    -.000032148 -.000036623 -.000021269    242
 1   13.032836701 17.028596055 7.849593961    -.000029120 -.000045254 .000011588    243
 1   11.660000847 17.823667663 10.094738180    -.000006657 -.000060613 -.000000716    244
 1   13.026211196 15.436898245 10.108297326    -.000019040 -.000050127 -.000018089    245
 1   11.649643274 16.233188219 12.383503984    -.000024352 -.000038512 -.000005677    246
 1   13.027675526 18.615970106 12.376534008    .000021149 .000023425 .000035030    247
 1   14.406600000 .396080000 1.120280000    .000000000 .000000000 .000000000    248
 1   15.778700000 2.772560000 1.120280000    .000000000 .000000000 .000000000    249
 1   14.406600000 3.564720000 3.360850000    .000000000 .000000000 .000000000    250
 1   15.778700000 1.188240000 3.360850000    .000000000 .000000000 .000000000    251
 1   14.406600000 1.980400000 5.601410000    .000000000 .000000000 .000000000    252
 1   15.778700000 4.356880000 5.601410000    .000000000 .000000000 .000000000    253
 1   14.403799508 .394460174 7.846752073    -.000000895 -.000013574 -.000017302    254
 1   15.777337364 2.770139274 7.845573516    .000010865 -.000013895 -.000013056    255
 1   14.403854225 3.564162570 10.094660557    .000022091 .000003949 .000000026    256
 1   15.774969913 1.184292032 10.092176026    .000021450 -.000051425 -.000021688    257
 1   14.401495497 1.981694850 12.375997451    .000015751 .000049064 -.000012700    258
 1   15.777652712 4.355789065 12.374109158    .000006828 -.000025514 .000054348    259
 1   14.406600000 5.149030000 1.120280000    .000000000 .000000000 .000000000    260
 1   15.778700000 7.525510000 1.120280000    .000000000 .000000000 .000000000    261
 1   14.406600000 8.317670000 3.360850000    .000000000 .000000000 .000000000    262
 1   15.778700000 5.941190000 3.360850000    .000000000 .000000000 .000000000    263
 1   14.406600000 6.733350000 5.601410000    .000000000 .000000000 .000000000    264
 1   15.778700000 9.109830000 5.601410000    .000000000 .000000000 .000000000    265
 1   14.411601183 5.146534136 7.842477140    -.000010005 -.000028125 .000019172    266
 1   15.783757380 7.522904521 7.842934356    .000028828 -.000065973 -.000001997    267
 1   14.413280736 8.309739661 10.078589482    .000073812 -.000021640 -.000013368    268
 1   15.782331163 5.939197009 10.093640560    .000013241 -.000072572 .000022205    269
 1   14.404780216 6.735455831 12.385132979    .000040470 .000017015 .000055749    270
 1   15.765722628 9.107306759 12.385386550    .000038877 -.000024688 -.000024717    271
 1   14.406600000 9.901990000 1.120280000    .000000000 .000000000 .000000000    272
 1   15.778700000 12.278500000 1.120280000    .000000000 .000000000 .000000000    273
 1   14.406600000 13.070600000 3.360850000    .000000000 .000000000 .000000000    274
 1   15.778700000 10.694100000 3.360850000    .000000000 .000000000 .000000000    275
 1   14.406600000 11.486300000 5.601410000    .000000000 .000000000 .000000000    276
 1   15.778700000 13.862800000 5.601410000    .000000000 .000000000 .000000000    277
 1   14.411281010 9.900450495 7.842052281    .000010155 -.000040950 .000001610    278
 1   15.775387683 12.279024978 7.854494764    -.000024008 -.000004854 -.000019624    279
 1   14.392476210 13.062995299 10.120569035    .000016184 -.000010302 -.000022262    280
 1   15.768411222 10.695482859 10.109857433    .000032988 -.000012657 .000025548    281
 1   14.358344463 11.461362853 12.430155248    .000047088 -.000026070 .000042685    282
 1   15.755160531 13.845513482 12.385231660    .000001167 -.000006133 -.000067370    283
 1   14.406600000 14.654900000 1.120280000    .000000000 .000000000 .000000000    284
 1   15.778700000 17.031400000 1.120280000    .000000000 .000000000 .000000000    285
 1   14.406600000 17.823600000 3.360850000    .000000000 .000000000 .000000000    286
 1   15.778700000 15.447100000 3.360850000    .000000000 .000000000 .000000000    287
 1   14.406600000 16.239300000 5.601410000    .000000000 .000000000 .000000000    288
 1   15.778700000 18.615700000 5.601410000    .000000000 .000000000 .000000000    289
 1   14.403735288 14.651823733 7.853959373    -.000012859 -.000000556 -.000015216    290
 1   15.776744241 17.029399431 7.845851620    .000007308 .000032021 -.000022729    291
 1   14.401818875 17.817730944 10.094718853    .000004981 -.000003549 -.000017138    292
 1   15.773536584 15.441081394 10.095366336    -.000017395 .000032150 -.000028364    293
 1   14.391749451 16.222632560 12.380503826    -.000024081 -.000000702 -.000014390    294
 1   15.773073162 18.606230067 12.373938208    .000018738 .000000189 -.000024312    295
 1   17.150700000 .396080000 1.120280000    .000000000 .000000000 .000000000    296
 1   18.522800000 2.772560000 1.120280000    .000000000 .000000000 .000000000    297
 1   17.150700000 3.564720000 3.360850000    .000000000 .000000000 .000000000    298
 1   18.522800000 1.188240000 3.360850000    .000000000 .000000000 .000000000    299
 1   17.150700000 1.980400000 5.601410000    .000000000 .000000000 .000000000    300
 1   18.522800000 4.356880000 5.601410000    .000000000 .000000000 .000000000    301
 1   17.149481780 .394233166 7.844815844    .000048013 -.000006722 -.000004998    302
 1   18.522767897 2.769821126 7.844137584    .000022429 -.000021292 .000010948    303
 1   17.150125278 3.561022447 10.090124918    .000016950 -.000074576 .000018704    304
 1   18.522765207 1.183405438 10.090092443    .000065453 -.000077620 .000024609    305
 1   17.149135903 1.973694206 12.371907441    .000037606 -.000065874 -.000035762    306
 1   18.522765729 4.353869930 12.370788359    .000044677 -.000059226 -.000017792    307
 1   17.150700000 5.149030000 1.120280000    .000000000 .000000000 .000000000    308
 1   18.522800000 7.525510000 1.120280000    .000000000 .000000000 .000000000    309
 1   17.150700000 8.317670000 3.360850000    .000000000 .000000000 .000000000    310
 1   18.522800000 5.941190000 3.360850000    .000000000 .000000000 .000000000    311
 1   17.150700000 6.733350000 5.601410000    .000000000 .000000000 .000000000    312
 1   18.522800000 9.109830000 5.601410000    .000000000 .000000000 .000000000    313
 1   17.152436831 5.146839435 7.844758345    .000003502 -.000064521 -.000000884    314
 1   18.522775691 7.527203681 7.846784063    .000012064 -.000024840 .000003054    315
 1   17.150601816 8.321496631 10.096352303    .000034185 -.000037475 .000018772    316
 1   18.522770182 5.941545618 10.091110945    .000036071 -.000062647 -.000011452    317
 1   17.150244387 6.734273304 12.375148484    .000034988 -.000030798 .000008770    318
 1   18.522768398 9.112344927 12.379148920    .000041772 -.000053506 .000002407    319
 1   17.150700000 9.901990000 1.120280000    .000000000 .000000000 .000000000    320
 1   18.522800000 12.278500000 1.120280000    .000000000 .000000000 .000000000    321
 1   17.150700000 13.070600000 3.360850000    .000000000 .000000000 .000000000    322
 1   18.522800000 10.694100000 3.360850000    .000000000 .000000000 .000000000    323
 1   17.150700000 11.486300000 5.601410000    .000000000 .000000000 .000000000    324
 1   18.522800000 13.862800000 5.601410000    .000000000 .000000000 .000000000    325
 1   17.149965994 9.905061153 7.851184877    -.000027840 -.000039872 .000023467    326
 1   18.522789593 12.280608184 7.847351187    -.000061066 .000002516 .000013736    327
 1   17.146132015 13.070748983 10.096358183    -.000011919 -.000001796 -.000004713    328
 1   18.522784706 10.699288741 10.098607670    .000016044 -.000023602 .000017870    329
 1   17.137187286 11.482178612 12.382525906    .000035803 -.000007631 .000021547    330
 1   18.522783094 13.852634409 12.374802249    .000014950 -.000036917 .000050068    331
 1   17.150700000 14.654900000 1.120280000    .000000000 .000000000 .000000000    332
 1   18.522800000 17.031400000 1.120280000    .000000000 .000000000 .000000000    333
 1   17.150700000 17.823600000 3.360850000    .000000000 .000000000 .000000000    334
 1   18.522800000 15.447100000 3.360850000    .000000000 .000000000 .000000000    335
 1   17.150700000 16.239300000 5.601410000    .000000000 .000000000 .000000000    336
 1   18.522800000 18.615700000 5.601410000    .000000000 .000000000 .000000000    337
 1   17.149525339 14.654853172 7.845451670    .000001025 -.000001048 -.000004461    338
 1   18.522774560 17.030745666 7.844349710    .000023543 -.000010488 -.000007178    339
 1   17.148530287 17.818796931 10.090816819    .000018834 -.000005744 -.000011534    340
 1   18.522785535 15.444368056 10.090572021    .000007902 -.000019854 .000019782    341
 1   17.144698924 16.225343252 12.373083091    -.000011781 -.000038481 -.000024869    342
 1   18.522777021 18.604484950 12.371728905    .000022512 -.000096228 .000008616    343
