         343
Lattice=" 19.208800 .000000 .000000 .000000 19.011800 .000000 .000000 .000000 30.000000 " properties=species:I:1:pos:R:3:forces:R:3:id:I:1 energy=-1770.574076857
 1   6.152538606 9.775422944 14.583107683    .000148037 .000010391 .000085630    1
 1   7.541894371 12.318237134 14.593937421    .000050359 .000136822 .000006092    2
 1   10.371297149 7.428427102 14.590707494    -.000134238 .000060724 -.000055697    3
 1   10.393666497 12.368780445 14.574118212    .000117872 .000084586 -.000027797    4
 1   11.831496222 9.912298373 14.565794262    .000131947 -.000025368 -.000053384    5
 1   4.699893766 12.250250297 14.589191201    .000033037 -.000029101 .000033563    6
 1   8.972787809 9.877121589 14.578940609    .000175908 .000217316 -.000013171    7
 1   .686030000 .396080000 1.120280000    .000000000 .000000000 .000000000    8
 1   2.058090000 2.772560000 1.120280000    .000000000 .000000000 .000000000    9
 1   .686030000 3.564720000 3.360850000    .000000000 .000000000 .000000000    10
 1   2.058090000 1.188240000 3.360850000    .000000000 .000000000 .000000000    11
 1   .686030000 1.980400000 5.601410000    .000000000 .000000000 .000000000    12
 1   2.058090000 4.356880000 5.601410000    .000000000 .000000000 .000000000    13
 1   .687799583 .394373394 7.845242932    -.000013595 -.000007064 -.000014507    14
 1   2.061189380 2.772201860 7.845696000    .000007779 .000032619 .000003787    15
 1   .690417557 3.562789062 10.091328504    .000005023 .000034488 -.000016492    16
 1   2.062169296 1.186063185 10.091846123    .000000791 .000028286 .000005014    17
 1   .689570321 1.975222847 12.372732608    -.000003498 .000019838 -.000018018    18
 1   2.064209327 4.360916148 12.374962447    -.000020560 .000058961 -.000021575    19
 1   .686030000 5.149030000 1.120280000    .000000000 .000000000 .000000000    20
 1   2.058090000 7.525510000 1.120280000    .000000000 .000000000 .000000000    21
 1   .686030000 8.317670000 3.360850000    .000000000 .000000000 .000000000    22
 1   2.058090000 5.941190000 3.360850000    .000000000 .000000000 .000000000    23
 1   .686030000 6.733350000 5.601410000    .000000000 .000000000 .000000000    24
 1   2.058090000 9.109830000 5.601410000    .000000000 .000000000 .000000000    25
 1   .688208543 5.147769507 7.845506745    .000017080 .000033455 -.000003050    26
 1   2.053634874 7.524801688 7.843633769    -.000010628 .000035167 -.000004233    27
 1   .682725725 8.318822432 10.095429507    .000000663 .000055775 -.000009320    28
 1   2.061719348 5.943252594 10.095275181    -.000008556 .000044196 -.000005239    29
 1   .688736874 6.734973197 12.375275627    -.000006917 .000057745 -.000012657    30
 1   2.061452498 9.113239245 12.386241617    .000015845 .000050690 -.000019333    31
 1   .686030000 9.901990000 1.120280000    .000000000 .000000000 .000000000    32
 1   2.058090000 12.278500000 1.120280000    .000000000 .000000000 .000000000    33
 1   .686030000 13.070600000 3.360850000    .000000000 .000000000 .000000000    34
 1   2.058090000 10.694100000 3.360850000    .000000000 .000000000 .000000000    35
 1   .686030000 11.486300000 5.601410000    .000000000 .000000000 .000000000    36
 1   2.058090000 13.862800000 5.601410000    .000000000 .000000000 .000000000    37
 1   .680021766 9.901436228 7.843921785    -.000017565 .000014202 .000014857    38
 1   2.056457338 12.279343156 7.843981368    .000005089 .000035263 .000000253    39
 1   .693572592 13.070432655 10.105087311    -.000005255 .000058999 -.000012021    40
 1   2.050833169 10.689143683 10.078850674    .000018417 .000052029 -.000006812    41
 1   .693102276 11.482124747 12.384227143    .000006985 .000040485 -.000017882    42
 1   2.095176257 13.837943501 12.414426968    .000008025 .000024652 -.000007877    43
 1   .686030000 14.654900000 1.120280000    .000000000 .000000000 .000000000    44
 1   2.058090000 17.031400000 1.120280000    .000000000 .000000000 .000000000    45
 1   .686030000 17.823600000 3.360850000    .000000000 .000000000 .000000000    46
 1   2.058090000 15.447100000 3.360850000    .000000000 .000000000 .000000000    47
 1   .686030000 16.239300000 5.601410000    .000000000 .000000000 .000000000    48
 1   2.058090000 18.615700000 5.601410000    .000000000 .000000000 .000000000    49
 1   .687833596 14.654374826 7.849252681    -.000026429 .000033250 .000001376    50
 1   2.059452628 17.029285911 7.847974844    -.000006784 .000022924 .000000620    51
 1   .688387918 17.817841564 10.092379924    -.000024512 .000028712 -.000010346    52
 1   2.064046412 15.439443676 10.103564403    -.000017271 .000032719 -.000001772    53
 1   .694723685 16.221650641 12.376960624    -.000003063 .000028420 -.000002564    54
 1   2.063289058 18.607194648 12.374298287    -.000025230 .000034676 -.000012538    55
 1   3.430150000 .396080000 1.120280000    .000000000 .000000000 .000000000    56
 1   4.802210000 2.772560000 1.120280000    .000000000 .000000000 .000000000    57
 1   3.430150000 3.564720000 3.360850000    .000000000 .000000000 .000000000    58
 1   4.802210000 1.188240000 3.360850000    .000000000 .000000000 .000000000    59
 1   3.430150000 1.980400000 5.601410000    .000000000 .000000000 .000000000    60
 1   4.802210000 4.356880000 5.601410000    .000000000 .000000000 .000000000    61
 1   3.431871825 .395143765 7.845754604    .000000420 .000017533 .000006655    62
 1   4.804397019 2.772820998 7.846261041    -.000021523 -.000001632 .000002725    63
 1   3.436761123 3.568300355 10.094232885    -.000020303 .000034538 -.000014335    64
 1   4.806101954 1.188645690 10.092676278    -.000026773 .000013682 .000014032    65
 1   3.436066680 1.984546148 12.373880715    -.000024865 .000043377 -.000000310    66
 1   4.811455937 4.378084578 12.381593059    -.000009483 .000048718 -.000004125    67
 1   3.430150000 5.149030000 1.120280000    .000000000 .000000000 .000000000    68
 1   4.802210000 7.525510000 1.120280000    .000000000 .000000000 .000000000    69
 1   3.430150000 8.317670000 3.360850000    .000000000 .000000000 .000000000    70
 1   4.802210000 5.941190000 3.360850000    .000000000 .000000000 .000000000    71
 1   3.430150000 6.733350000 5.601410000    .000000000 .000000000 .000000000    72
 1   4.802210000 9.109830000 5.601410000    .000000000 .000000000 .000000000    73
 1   3.432410554 5.150921163 7.850068732    -.000024776 .000006441 .000003847    74
 1   4.798889637 7.524718156 7.845106976    .000019796 .000039309 .000029691    75
 1   3.421124054 8.320037280 10.081394678    .000032657 .000058504 .000023536    76
 1   4.807556359 5.953723525 10.111015987    .000022067 .000034273 .000009165    77
 1   3.437018682 6.749598504 12.386616406    .000008438 .000054529 -.000011506    78
 1   4.795478392 9.126870751 12.306860800    .000013450 .000077774 .000078717    79
 1   3.430150000 9.901990000 1.120280000    .000000000 .000000000 .000000000    80
 1   4.802210000 12.278500000 1.120280000    .000000000 .000000000 .000000000    81
 1   3.430150000 13.070600000 3.360850000    .000000000 .000000000 .000000000    82
 1   4.802210000 10.694100000 3.360850000    .000000000 .000000000 .000000000    83
 1   3.430150000 11.486300000 5.601410000    .000000000 .000000000 .000000000    84
 1   4.802210000 13.862800000 5.601410000    .000000000 .000000000 .000000000    85
 1   3.425000855 9.900820166 7.834936450    -.000000593 .000022327 .000005545    86
 1   4.800565725 12.281012823 7.832225080    -.000020337 .000010183 .000010815    87
 1   3.434170531 13.072970580 10.081050311    -.000021923 .000029927 .000007418    88
 1   4.806201155 10.694663134 10.050698161    -.000002007 .000008809 .000006921    89
 1   3.440871064 11.464414516 12.298714225    -.000029352 .000042366 -.000007742    90
 1   4.836395710 13.850294868 12.336101509    -.000002846 .000032035 .000015134    91
 1   3.430150000 14.654900000 1.120280000    .000000000 .000000000 .000000000    92
 1   4.802210000 17.031400000 1.120280000    .000000000 .000000000 .000000000    93
 1   3.430150000 17.823600000 3.360850000    .000000000 .000000000 .000000000    94
 1   4.802210000 15.447100000 3.360850000    .000000000 .000000000 .000000000    95
 1   3.430150000 16.239300000 5.601410000    .000000000 .000000000 .000000000    96
 1   4.802210000 18.615700000 5.601410000    .000000000 .000000000 .000000000    97
 1   3.431253401 14.657668597 7.844295079    -.000022975 .000011635 .000005582    98
 1   4.804096262 17.033625872 7.844968606    -.000011409 .000035604 -.000000872    99
 1   3.433093943 17.819527479 10.094594444    -.000013706 .000033725 .000008313    100
 1   4.809001196 15.449428229 10.088740083    -.000020680 .000015360 .000000734    101
 1   3.444070356 16.223645263 12.383788562    -.000021389 .000042073 .000014368    102
 1   4.806994852 18.614809580 12.375791979    -.000007186 .000032260 .000021690    103
 1   6.174270000 .396080000 1.120280000    .000000000 .000000000 .000000000    104
 1   7.546330000 2.772560000 1.120280000    .000000000 .000000000 .000000000    105
 1   6.174270000 3.564720000 3.360850000    .000000000 .000000000 .000000000    106
 1   7.546330000 1.188240000 3.360850000    .000000000 .000000000 .000000000    107
 1   6.174270000 1.980400000 5.601410000    .000000000 .000000000 .000000000    108
 1   7.546330000 4.356880000 5.601410000    .000000000 .000000000 .000000000    109
 1   6.176189334 .397207516 7.846338269    -.000015706 .000004333 .000000050    110
 1   7.547756466 2.775260893 7.849108761    .000001687 .000034831 .000015975    111
 1   6.177909460 3.570733883 10.097295703    -.000008928 .000035695 .000002837    112
 1   7.549208465 1.193222993 10.094191961    -.000007558 .000032616 .000015239    113
 1   6.178977781 1.994533996 12.376002873    -.000019534 .000037485 .000021209    114
 1   7.548429642 4.392629416 12.391023776    -.000002865 .000041916 -.000014229    115
 1   6.174270000 5.149030000 1.120280000    .000000000 .000000000 .000000000    116
 1   7.546330000 7.525510000 1.120280000    .000000000 .000000000 .000000000    117
 1   6.174270000 8.317670000 3.360850000    .000000000 .000000000 .000000000    118
 1   7.546330000 5.941190000 3.360850000    .000000000 .000000000 .000000000    119
 1   6.174270000 6.733350000 5.601410000    .000000000 .000000000 .000000000    120
 1   7.546330000 9.109830000 5.601410000    .000000000 .000000000 .000000000    121
 1   6.171618162 5.150827456 7.850394696    -.000003833 -.000004866 -.000010061    122
 1   7.543335625 7.522612292 7.838743527    -.000012360 .000024059 .000015760    123
 1   6.175811950 8.317804568 10.080973292    -.000026758 .000023824 .000032048    124
 1   7.537144077 5.952549025 10.102905612    -.000027507 .000003442 -.000029747    125
 1   6.182888810 6.788469431 12.439007272    -.000001625 .000027485 .000020209    126
 1   7.573337284 9.126405289 12.299097969    .000074719 .000081321 .000001341    127
 1   6.174270000 9.901990000 1.120280000    .000000000 .000000000 .000000000    128
 1   7.546330000 12.278500000 1.120280000    .000000000 .000000000 .000000000    129
 1   6.174270000 13.070600000 3.360850000    .000000000 .000000000 .000000000    130
 1   7.546330000 10.694100000 3.360850000    .000000000 .000000000 .000000000    131
 1   6.174270000 11.486300000 5.601410000    .000000000 .000000000 .000000000    132
 1   7.546330000 13.862800000 5.601410000    .000000000 .000000000 .000000000    133
 1   6.173382610 9.897748092 7.830163854    -.000035259 -.000007910 .000028101    134
 1   7.544986824 12.278281422 7.828099478    .000001076 .000019264 -.000014221    135
 1   6.178134651 13.068321690 10.065484600    .000019562 .000021519 .000004222    136
 1   7.549867316 10.692008771 10.051248726    .000020109 .000056447 .000044285    137
 1   6.194343207 11.468996831 12.296808303    .000068547 .000016709 .000068035    138
 1   7.550596966 13.853378960 12.332546585    .000010405 .000055865 -.000032542    139
 1   6.174270000 14.654900000 1.120280000    .000000000 .000000000 .000000000    140
 1   7.546330000 17.031400000 1.120280000    .000000000 .000000000 .000000000    141
 1   6.174270000 17.823600000 3.360850000    .000000000 .000000000 .000000000    142
 1   7.546330000 15.447100000 3.360850000    .000000000 .000000000 .000000000    143
 1   6.174270000 16.239300000 5.601410000    .000000000 .000000000 .000000000    144
 1   7.546330000 18.615700000 5.601410000    .000000000 .000000000 .000000000    145
 1   6.175347615 14.658331214 7.840321423    .000005352 .000011614 -.000006236    146
 1   7.546875193 17.034159776 7.845584071    -.000026952 .000012646 -.000004119    147
 1   6.177028100 17.823551070 10.096110572    -.000021110 .000024459 .000004741    148
 1   7.547317871 15.449449636 10.089411759    -.000025860 .000011966 -.000020621    149
 1   6.181333616 16.229942541 12.388675417    -.000021121 .000029990 .000011023    150
 1   7.547775363 18.623148423 12.376760678    -.000004115 .000063690 .000001757    151
 1   8.918390000 .396080000 1.120280000    .000000000 .000000000 .000000000    152
 1   10.290400000 2.772560000 1.120280000    .000000000 .000000000 .000000000    153
 1   8.918390000 3.564720000 3.360850000    .000000000 .000000000 .000000000    154
 1   10.290400000 1.188240000 3.360850000    .000000000 .000000000 .000000000    155
 1   8.918390000 1.980400000 5.601410000    .000000000 .000000000 .000000000    156
 1   10.290400000 4.356880000 5.601410000    .000000000 .000000000 .000000000    157
 1   8.918553415 .398545890 7.845673793    -.000004225 .000010326 -.000001374    158
 1   10.289315573 2.776099170 7.850604037    .000000664 .000015105 .000012114    159
 1   8.919585473 3.577483828 10.107623352    -.000014333 .000033428 .000002015    160
 1   10.289388129 1.192473273 10.093576698    -.000012510 .000034934 .000000943    161
 1   8.920490565 2.004013307 12.379306521    -.000004169 .000041987 .000012022    162
 1   10.288705726 4.408090917 12.418772407    -.000009437 .000046712 -.000005678    163
 1   8.918390000 5.149030000 1.120280000    .000000000 .000000000 .000000000    164
 1   10.290400000 7.525510000 1.120280000    .000000000 .000000000 .000000000    165
 1   8.918390000 8.317670000 3.360850000    .000000000 .000000000 .000000000    166
 1   10.290400000 5.941190000 3.360850000    .000000000 .000000000 .000000000    167
 1   8.918390000 6.733350000 5.601410000    .000000000 .000000000 .000000000    168
 1   10.290400000 9.109830000 5.601410000    .000000000 .000000000 .000000000    169
 1   8.913824488 5.149975517 7.848615458    -.000013562 -.000004986 -.000011209    170
 1   10.290646149 7.521725881 7.828494439    -.000015542 .000036157 .000004240    171
 1   8.923428391 8.319692710 10.055085557    .000028123 .000042619 -.000029732    172
 1   10.285685118 5.945613332 10.083526131    .000000020 .000024920 -.000008048    173
 1   8.911168171 6.776662250 12.341750264    .000017300 .000029003 -.000063800    174
 1   10.308970568 9.119546932 12.283514301    .000029823 .000063990 -.000035150    175
 1   8.918390000 9.901990000 1.120280000    .000000000 .000000000 .000000000    176
 1   10.290400000 12.278500000 1.120280000    .000000000 .000000000 .000000000    177
 1   8.918390000 13.070600000 3.360850000    .000000000 .000000000 .000000000    178
 1   10.290400000 10.694100000 3.360850000    .000000000 .000000000 .000000000    179
 1   8.918390000 11.486300000 5.601410000    .000000000 .000000000 .000000000    180
 1   10.290400000 13.862800000 5.601410000    .000000000 .000000000 .000000000    181
 1   8.918876744 9.900144546 7.823633122    .000027543 .000015029 .000007317    182
 1   10.291364772 12.282579037 7.828706945    -.000018535 .000018344 -.000003010    183
 1   8.913214114 13.067734040 10.058283038    -.000033853 .000035877 -.000038698    184
 1   10.287380734 10.694223865 10.042227008    -.000008058 .000014941 -.000033920    185
 1   8.924675341 11.477848091 12.297780183    -.000013546 .000040267 .000016925    186
 1   10.258329464 13.866414449 12.302504409    .000004100 .000068740 -.000063815    187
 1   8.918390000 14.654900000 1.120280000    .000000000 .000000000 .000000000    188
 1   10.290400000 17.031400000 1.120280000    .000000000 .000000000 .000000000    189
 1   8.918390000 17.823600000 3.360850000    .000000000 .000000000 .000000000    190
 1   10.290400000 15.447100000 3.360850000    .000000000 .000000000 .000000000    191
 1   8.918390000 16.239300000 5.601410000    .000000000 .000000000 .000000000    192
 1   10.290400000 18.615700000 5.601410000    .000000000 .000000000 .000000000    193
 1   8.916757587 14.659086560 7.837692225    -.000050203 .000000412 -.000015653    194
 1   10.289180839 17.036536225 7.842036358    -.000004319 .000048559 -.000018456    195
 1   8.917243691 17.826278841 10.094736748    -.000021336 .000043948 -.000013535    196
 1   10.283096139 15.456872811 10.078709112    -.000011695 .000027396 -.000038629    197
 1   8.911888165 16.235400293 12.387279430    .000012625 .000034227 -.000030886    198
 1   10.286566990 18.621763736 12.374849185    -.000042909 .000044185 -.000014046    199
 1   11.662500000 .396080000 1.120280000    .000000000 .000000000 .000000000    200
 1   13.034600000 2.772560000 1.120280000    .000000000 .000000000 .000000000    201
 1   11.662500000 3.564720000 3.360850000    .000000000 .000000000 .000000000    202
 1   13.034600000 1.188240000 3.360850000    .000000000 .000000000 .000000000    203
 1   11.662500000 1.980400000 5.601410000    .000000000 .000000000 .000000000    204
 1   13.034600000 4.356880000 5.601410000    .000000000 .000000000 .000000000    205
 1   11.661989864 .396748144 7.845916789    -.000011718 .000027041 .000002035    206
 1   13.031967739 2.773612499 7.849398925    -.000003305 .000030970 .000018305    207
 1   11.656851165 3.575098642 10.105943973    .000007634 .000043138 .000010503    208
 1   13.030371310 1.188784410 10.094630899    -.000017727 .000022466 .000020088    209
 1   11.656221574 1.995994402 12.378930973    -.000008260 .000030602 .000024226    210
 1   13.031932226 4.368461523 12.383019572    -.000008117 .000039758 .000027145    211
 1   11.662500000 5.149030000 1.120280000    .000000000 .000000000 .000000000    212
 1   13.034600000 7.525510000 1.120280000    .000000000 .000000000 .000000000    213
 1   11.662500000 8.317670000 3.360850000    .000000000 .000000000 .000000000    214
 1   13.034600000 5.941190000 3.360850000    .000000000 .000000000 .000000000    215
 1   11.662500000 6.733350000 5.601410000    .000000000 .000000000 .000000000    216
 1   13.034600000 9.109830000 5.601410000    .000000000 .000000000 .000000000    217
 1   11.662323846 5.148515932 7.844486149    .000016316 .000008094 .000001215    218
 1   13.040623075 7.521954524 7.831243320    .000012639 .000012065 -.000012736    219
 1   11.664831247 8.318525287 10.040820251    -.000010101 .000038402 -.000043300    220
 1   13.045066322 5.939217300 10.076391701    .000005336 .000016750 .000021765    221
 1   11.681238289 6.751528078 12.296274313    -.000026649 .000044066 .000007133    222
 1   13.038174289 9.084986653 12.283355999    .000009557 .000061413 -.000097589    223
 1   11.662500000 9.901990000 1.120280000    .000000000 .000000000 .000000000    224
 1   13.034600000 12.278500000 1.120280000    .000000000 .000000000 .000000000    225
 1   11.662500000 13.070600000 3.360850000    .000000000 .000000000 .000000000    226
 1   13.034600000 10.694100000 3.360850000    .000000000 .000000000 .000000000    227
 1   11.662500000 11.486300000 5.601410000    .000000000 .000000000 .000000000    228
 1   13.034600000 13.862800000 5.601410000    .000000000 .000000000 .000000000    229
 1   11.666473865 9.903658402 7.825040340    -.000008841 -.000008658 -.000012541    230
 1   13.036597814 12.281254381 7.841958493    -.000005639 .000037943 -.000001481    231
 1   11.657545714 13.076519973 10.071038108    .000005747 .000028304 -.000002269    232
 1   13.037865085 10.691721598 10.066839167    -.000004116 .000046544 -.000004210    233
 1   11.640193577 11.472013624 12.273418398    .000035230 .000041732 -.000012802    234
 1   12.984391997 13.833125424 12.432746766    -.000026508 .000027118 .000003570    235
 1   11.662500000 14.654900000 1.120280000    .000000000 .000000000 .000000000    236
 1   13.034600000 17.031400000 1.120280000    .000000000 .000000000 .000000000    237
 1   11.662500000 17.823600000 3.360850000    .000000000 .000000000 .000000000    238
 1   13.034600000 15.447100000 3.360850000    .000000000 .000000000 .000000000    239
 1   11.662500000 16.239300000 5.601410000    .000000000 .000000000 .000000000    240
 1   13.034600000 18.615700000 5.601410000    .000000000 .000000000 .000000000    241
 1   11.661387379 14.659887075 7.841250983    -.000002355 .000008574 .000008638    242
 1   13.033490144 17.028424259 7.849467726    -.000014522 .000032089 -.000019300    243
 1   11.660494009 17.821993354 10.094169126    -.000029381 .000046797 -.000018829    244
 1   13.026052747 15.436573603 10.108867032    -.000027035 .000033791 -.000019157    245
 1   11.646860132 16.229698904 12.383805135    -.000034634 .000041859 -.000035015    246
 1   13.027507130 18.612657069 12.375894530    -.000022096 .000041632 -.000014503    247
 1   14.406600000 .396080000 1.120280000    .000000000 .000000000 .000000000    248
 1   15.778700000 2.772560000 1.120280000    .000000000 .000000000 .000000000    249
 1   14.406600000 3.564720000 3.360850000    .000000000 .000000000 .000000000    250
 1   15.778700000 1.188240000 3.360850000    .000000000 .000000000 .000000000    251
 1   14.406600000 1.980400000 5.601410000    .000000000 .000000000 .000000000    252
 1   15.778700000 4.356880000 5.601410000    .000000000 .000000000 .000000000    253
 1   14.404754135 .394380291 7.846615227    -.000007408 .000006462 -.000006171    254
 1   15.778375565 2.769786670 7.845819011    -.000004975 .000022916 -.000002132    255
 1   14.405048439 3.562400197 10.094512897    -.000002556 .000023074 .000008395    256
 1   15.776512003 1.183352954 10.092497527    -.000020720 .000019071 .000008176    257
 1   14.402688179 1.978648174 12.375936939    -.000014811 .000009334 .000018486    258
 1   15.779821226 4.352615326 12.374009634    -.000005640 .000025201 .000022249    259
 1   14.406600000 5.149030000 1.120280000    .000000000 .000000000 .000000000    260
 1   15.778700000 7.525510000 1.120280000    .000000000 .000000000 .000000000    261
 1   14.406600000 8.317670000 3.360850000    .000000000 .000000000 .000000000    262
 1   15.778700000 5.941190000 3.360850000    .000000000 .000000000 .000000000    263
 1   14.406600000 6.733350000 5.601410000    .000000000 .000000000 .000000000    264
 1   15.778700000 9.109830000 5.601410000    .000000000 .000000000 .000000000    265
 1   14.411102336 5.145382875 7.842042622    .000008401 .000015497 .000003448    266
 1   15.784656932 7.520753332 7.840686688    -.000005275 .000021916 -.000004107    267
 1   14.417849937 8.305994207 10.072352964    .000023338 .000014416 -.000030019    268
 1   15.784102274 5.935896677 10.092081009    -.000002777 .000022163 .000016455    269
 1   14.408528131 6.731232555 12.382253540    .000028885 .000036471 .000017018    270
 1   15.768722506 9.105111355 12.384710113    -.000012008 .000040428 .000029666    271
 1   14.406600000 9.901990000 1.120280000    .000000000 .000000000 .000000000    272
 1   15.778700000 12.278500000 1.120280000    .000000000 .000000000 .000000000    273
 1   14.406600000 13.070600000 3.360850000    .000000000 .000000000 .000000000    274
 1   15.778700000 10.694100000 3.360850000    .000000000 .000000000 .000000000    275
 1   14.406600000 11.486300000 5.601410000    .000000000 .000000000 .000000000    276
 1   15.778700000 13.862800000 5.601410000    .000000000 .000000000 .000000000    277
 1   14.411026059 9.900038679 7.840721841    .000012425 .000006731 .000004120    278
 1   15.774997535 12.279016135 7.856098277    -.000016138 .000028166 .000014977    279
 1   14.391292385 13.062731517 10.123222862    -.000013838 .000051074 .000014338    280
 1   15.766620930 10.694746492 10.111494769    -.000003288 .000029534 .000023107    281
 1   14.358900571 11.460418649 12.434490696    -.000019653 .000023909 .000037904    282
 1   15.755206665 13.845478952 12.387010719    -.000009718 .000046328 .000014594    283
 1   14.406600000 14.654900000 1.120280000    .000000000 .000000000 .000000000    284
 1   15.778700000 17.031400000 1.120280000    .000000000 .000000000 .000000000    285
 1   14.406600000 17.823600000 3.360850000    .000000000 .000000000 .000000000    286
 1   15.778700000 15.447100000 3.360850000    .000000000 .000000000 .000000000    287
 1   14.406600000 16.239300000 5.601410000    .000000000 .000000000 .000000000    288
 1   15.778700000 18.615700000 5.601410000    .000000000 .000000000 .000000000    289
 1   14.403805389 14.651677093 7.854598230    -.000006900 .000018059 -.000008370    290
 1   15.777341231 17.029228935 7.845917384    -.000017547 .000037324 .000002094    291
 1   14.402646762 17.816969662 10.094592489    -.000019206 .000032502 -.000005024    292
 1   15.773698328 15.440629719 10.095895232    -.000027816 .000046212 .000012637    293
 1   14.391079276 16.221035272 12.380835371    -.000017518 .000031980 -.000013282    294
 1   15.773772476 18.604239417 12.374193071    -.000013770 .000011238 .000006951    295
 1   17.150700000 .396080000 1.120280000    .000000000 .000000000 .000000000    296
 1   18.522800000 2.772560000 1.120280000    .000000000 .000000000 .000000000    297
 1   17.150700000 3.564720000 3.360850000    .000000000 .000000000 .000000000    298
 1   18.522800000 1.188240000 3.360850000    .000000000 .000000000 .000000000    299
 1   17.150700000 1.980400000 5.601410000    .000000000 .000000000 .000000000    300
 1   18.522800000 4.356880000 5.601410000    .000000000 .000000000 .000000000    301
 1   17.150531975 .394297125 7.845099325    -.000014209 .000020390 .000011481    302
 1   18.524823741 2.770144089 7.844845016    -.000009998 .000017858 -.000004463    303
 1   17.152609746 3.559488674 10.090819369    -.000009391 .000027057 .000007500    304
 1   18.524591186 1.183266315 10.091023483    -.000012071 .000019829 -.000014459    305
 1   17.150932913 1.971814057 12.372868165    -.000011671 .000022094 -.000000299    306
 1   18.525669073 4.353167582 12.371876990    .000002972 .000045328 .000009718    307
 1   17.150700000 5.149030000 1.120280000    .000000000 .000000000 .000000000    308
 1   18.522800000 7.525510000 1.120280000    .000000000 .000000000 .000000000    309
 1   17.150700000 8.317670000 3.360850000    .000000000 .000000000 .000000000    310
 1   18.522800000 5.941190000 3.360850000    .000000000 .000000000 .000000000    311
 1   17.150700000 6.733350000 5.601410000    .000000000 .000000000 .000000000    312
 1   18.522800000 9.109830000 5.601410000    .000000000 .000000000 .000000000    313
 1   17.153890862 5.145311550 7.844577740    -.000007507 .000011389 .000006689    314
 1   18.522077260 7.524911680 7.845978444    .000017983 .000046741 .000015237    315
 1   17.150527683 8.318930384 10.094816341    .000008623 .000044498 .000023842    316
 1   18.525674254 5.939469530 10.090927732    .000006949 .000059265 .000005424    317
 1   17.152404719 6.731554034 12.373428841    -.000001635 .000055469 .000024031    318
 1   18.519818685 9.111283536 12.378373816    .000016184 .000051532 .000007203    319
 1   17.150700000 9.901990000 1.120280000    .000000000 .000000000 .000000000    320
 1   18.522800000 12.278500000 1.120280000    .000000000 .000000000 .000000000    321
 1   17.150700000 13.070600000 3.360850000    .000000000 .000000000 .000000000    322
 1   18.522800000 10.694100000 3.360850000    .000000000 .000000000 .000000000    323
 1   17.150700000 11.486300000 5.601410000    .000000000 .000000000 .000000000    324
 1   18.522800000 13.862800000 5.601410000    .000000000 .000000000 .000000000    325
 1   17.147425047 9.904231360 7.851262389    -.000009420 .000020275 .000001898    326
 1   18.522599986 12.280577297 7.850331076    -.000023848 .000030007 .000002214    327
 1   17.146661713 13.071092779 10.099000999    -.000026055 .000043430 -.000003175    328
 1   18.517610464 10.698250424 10.098793205    -.000019323 .000039218 .000008387    329
 1   17.135335031 11.482788213 12.384624626    .000010328 .000031895 .000020190    330
 1   18.526640521 13.852822597 12.379052212    .000003695 .000045255 -.000010506    331
 1   17.150700000 14.654900000 1.120280000    .000000000 .000000000 .000000000    332
 1   18.522800000 17.031400000 1.120280000    .000000000 .000000000 .000000000    333
 1   17.150700000 17.823600000 3.360850000    .000000000 .000000000 .000000000    334
 1   18.522800000 15.447100000 3.360850000    .000000000 .000000000 .000000000    335
 1   17.150700000 16.239300000 5.601410000    .000000000 .000000000 .000000000    336
 1   18.522800000 18.615700000 5.601410000    .000000000 .000000000 .000000000    337
 1   17.149842480 14.654569494 7.846039300    -.000022765 .000034549 .000001065    338
 1   18.523119763 17.030380446 7.844742643    -.000023040 .000039020 .000003194    339
 1   17.149323254 17.818340578 10.091141797    -.000022600 .000020179 -.000000754    340
 1   18.523273506 15.443808407 10.092317090    -.000015765 .000035914 .000001839    341
 1   17.145671500 16.224191031 12.373703624    -.000009820 .000034634 .000002021    342
 1   18.524143849 18.603001682 12.372682122    -.000014360 .000027349 -.000012210    343
