 CRYSTAL
 PRIMVEC
   14.275149902    0.000000000    0.000000000
    0.000000000   14.275149902    0.000000000
    0.000000000    0.000000000   25.093925130
 PRIMCOORD
         151           1
Al        7.161222985    7.160582975   12.226769488    0.000163168    0.000167285   -0.000853443
Al        2.857415788    2.856914549   10.447792704    0.000058230    0.000063255    0.000068998
Al        2.844714033    5.717222940   10.458245179   -0.000348904   -0.000104524   -0.000059369
Al        2.839291433    8.576334230   10.458352100   -0.000261714    0.000010303    0.000023743
Al        2.856602022   11.434253255   10.449204604   -0.000080037   -0.000101778   -0.000051473
Al        2.844782292   14.282724314   10.443355328    0.000159726   -0.000005832    0.000012533
Al        5.717745584    2.844099210   10.458259535   -0.000108736   -0.000344407   -0.000059038
Al        5.659796701    5.659185610   10.517025408   -0.000204907   -0.000199127   -0.000239208
Al        5.658806634    8.672061116   10.522403304   -0.000433687   -0.000323500   -0.000567210
Al        5.715946356   11.487279231   10.451796138   -0.000156989   -0.000156382    0.000227735
Al        5.701620426   14.302256189   10.450273708    0.000254619   -0.000227492    0.000041002
Al        8.576830152    2.838702003   10.458371301    0.000010107   -0.000254792    0.000022325
Al        8.672688614    5.658273600   10.522393700   -0.000322927   -0.000435989   -0.000571011
Al        8.663261557    8.662688487   10.515870364    0.000089387    0.000092082   -0.000279238
Al        8.574689586   11.477350629   10.453496487   -0.000097012    0.000161732   -0.000024479
Al        8.552882728   14.292942040   10.447356725    0.000207099    0.000105555    0.000253327
Al       11.434695284    2.856135645   10.449189157   -0.000101172   -0.000076439   -0.000050284
Al       11.487854988    5.715482212   10.451750464   -0.000158479   -0.000155251    0.000227911
Al       11.477866107    8.574232027   10.453386804    0.000166237   -0.000097579   -0.000020510
Al       11.431286495   11.430827667   10.445821713   -0.000075470   -0.000076481    0.000070340
Al       11.413129584   14.279948725   10.442877061    0.000160097   -0.000017346    0.000061263
Al       14.283171892    2.844268659   10.443357054   -0.000006200    0.000164746    0.000011629
Al       14.302852114    5.701107054   10.450255622   -0.000230518    0.000257738    0.000041100
Al       14.293500676    8.552406801   10.447334277    0.000101605    0.000207877    0.000253380
Al       14.280393439   11.412670679   10.442866704   -0.000017621    0.000162503    0.000059959
Al       14.268130453   14.267664649   10.440251393    0.000028828    0.000028950    0.000101517
Al        1.426012325    1.425546322    8.354529431    0.000114047    0.000117003    0.000153146
Al        1.443848208    4.281665098    8.358894234   -0.000208858    0.000006718    0.000036797
Al        1.459750377    7.135985191    8.355265526   -0.000320165    0.000102396   -0.000022801
Al        1.437036562    9.991045201    8.359607913   -0.000096328    0.000080028   -0.000021430
Al        1.424816380   12.846099037    8.356066812    0.000041691    0.000093878    0.000056774
Al        4.282146944    1.443361821    8.358888142    0.000002705   -0.000207555    0.000037397
Al        4.293812085    4.293304978    8.377295356   -0.000086845   -0.000084176   -0.000035506
Al        4.328023677    7.155945921    8.411827080   -0.000374721   -0.000203696   -0.000078061
Al        4.286540775   10.014230590    8.376438435    0.000121706    0.000019778   -0.000050662
Al        4.279170297   12.867482720    8.357013273    0.000080428   -0.000210571    0.000050619
Al        7.136440403    1.459220404    8.355273462    0.000101505   -0.000317613   -0.000023183
Al        7.156438572    4.327503545    8.411827074   -0.000206550   -0.000371955   -0.000076184
Al        7.162416193    7.161890365    8.566073314   -0.000147589   -0.000146031   -0.000281720
Al        7.147128194    9.999090235    8.404622339    0.000058184   -0.000274246    0.000172196
Al        7.134330045   12.866682253    8.349962626    0.000076581   -0.000193545    0.000109444
Al        9.991472014    1.436507309    8.359601193    0.000079372   -0.000092265   -0.000020588
Al       10.014697039    4.286016226    8.376400808    0.000018041    0.000129195   -0.000049575
Al        9.999606659    7.146640164    8.404539033   -0.000275522    0.000059107    0.000175036
Al       10.008963515   10.008494335    8.371854176   -0.000026365   -0.000024940    0.000048193
Al        9.990237845   12.860742867    8.356116846    0.000044396   -0.000137127    0.000036717
Al       12.846524182    1.424374049    8.356055807    0.000095256    0.000044667    0.000057417
Al       12.867952987    4.278720998    8.357013431   -0.000211196    0.000084209    0.000048076
Al       12.867225034    7.133903229    8.349939433   -0.000196417    0.000078051    0.000106482
Al       12.861255416    9.989844003    8.356071187   -0.000140213    0.000041601    0.000037801
Al       12.846079624   12.845679214    8.354953386    0.000012362    0.000009740    0.000099938
Al        2.866349089    2.865935257    6.267197553    0.000000067    0.000005093    0.000006051
Al        2.884251163    5.721107290    6.280718592   -0.000152130   -0.000002844   -0.000031330
Al        2.880058769    8.564902275    6.280115054   -0.000059775    0.000052704    0.000026069
Al        2.860252818   11.420700058    6.266890105    0.000099215    0.000014917    0.000093037
Al        2.858957491   14.281637980    6.257941032    0.000117159   -0.000079190    0.000104995
Al        5.721520110    2.883878629    6.280715469   -0.000007551   -0.000149201   -0.000030868
Al        5.746387309    5.746029590    6.314532568   -0.000244625   -0.000242600   -0.000290664
Al        5.741794035    8.562582414    6.311503842   -0.000112943    0.000030295   -0.000114760
Al        5.713481824   11.424725483    6.276719311    0.000288223    0.000006960    0.000159201
Al        5.709328089   14.292550973    6.271609272    0.000111246   -0.000073915    0.000102735
Al        8.565274159    2.879645936    6.280093353    0.000054329   -0.000055185    0.000026482
Al        8.562910099    5.741405391    6.311470094    0.000033960   -0.000109713   -0.000112314
Al        8.558205793    8.557810198    6.312550145    0.000071171    0.000072293   -0.000133680
Al        8.559739504   11.422229268    6.277813172    0.000100671   -0.000076954    0.000058488
Al        8.558767560   14.289471126    6.272099570    0.000148126   -0.000053371    0.000061161
Al       11.421074620    2.859866963    6.266864845    0.000013728    0.000103115    0.000095002
Al       11.425089785    5.713104422    6.276693626    0.000006858    0.000291804    0.000159792
Al       11.422638058    8.559390147    6.277796799   -0.000077570    0.000100467    0.000058258
Al       11.417349066   11.417011723    6.266241344    0.000031795    0.000030997    0.000065619
Al       11.410297950   14.276847933    6.258295964   -0.000001234    0.000003105    0.000059871
Al       14.282018583    2.858569183    6.257931512   -0.000078988    0.000124451    0.000105859
Al       14.292917147    5.708952907    6.271612203   -0.000073610    0.000115474    0.000101813
Al       14.289887782    8.558443639    6.272095053   -0.000055475    0.000145965    0.000061132
Al       14.277210386   11.410000209    6.258290166    0.000003415   -0.000002698    0.000059877
Al       14.272493087   14.272156165    6.254980334    0.000010784    0.000010043    0.000124361
Al        1.438104521    1.437897980    4.112841439    0.000051758    0.000053839    0.000032404
Al        1.436805895    4.288808042    4.123203029   -0.000070833    0.000064119    0.000039653
Al        1.441269404    7.137637270    4.122729320   -0.000125540    0.000010563    0.000070930
Al        1.434826275    9.986213550    4.123562802   -0.000049233    0.000040299    0.000009477
Al        1.437416945   12.837230005    4.113057749   -0.000010008    0.000031976    0.000058977
Al        4.289019784    1.436555416    4.123196846    0.000060394   -0.000066353    0.000039225
Al        4.298718611    4.298481095    4.140473605   -0.000147626   -0.000145212   -0.000170915
Al        4.307435096    7.143254560    4.132397777   -0.000113366    0.000000431   -0.000013463
Al        4.296605573    9.989518674    4.138758431   -0.000106915    0.000068091   -0.000037849
Al        4.288344239   12.853053660    4.122969539   -0.000048112   -0.000037165    0.000009045
Al        7.137821162    1.441032859    4.122710399    0.000010858   -0.000122917    0.000070920
Al        7.143455955    4.307220919    4.132389590    0.000000806   -0.000110942   -0.000014279
Al        7.146929879    7.146746075    4.136334924   -0.000093860   -0.000095656    0.000140948
Al        7.142880801    9.986873246    4.130699764   -0.000091441    0.000009591    0.000105125
Al        7.136647824   12.855192477    4.122500259    0.000022347   -0.000095133    0.000001282
Al        9.986373722    1.434616754    4.123547812    0.000043227   -0.000047230    0.000009843
Al        9.989709556    4.296407997    4.138745733    0.000069780   -0.000103944   -0.000037352
Al        9.987062080    7.142715569    4.130687631    0.000012995   -0.000093382    0.000106369
Al        9.988724240    9.988560583    4.140027586    0.000012799    0.000008772   -0.000141348
Al        9.984885216   12.851451210    4.123615743    0.000110898   -0.000033441   -0.000041281
Al       12.837403161    1.437217243    4.113060172    0.000032726   -0.000008092    0.000056982
Al       12.853267768    4.288134795    4.122970259   -0.000034891   -0.000043393    0.000009005
Al       12.855413621    7.136474701    4.122498207   -0.000094097    0.000022096    0.000001660
Al       12.851635816    9.984736919    4.123622240   -0.000031009    0.000107798   -0.000042642
Al       12.835812539   12.835657521    4.113088637    0.000091175    0.000088337    0.000089744
Al        0.000000000    0.000000000    2.018785000    0.000009711    0.000003235    0.008329014
Al        0.000000000    2.855029970    2.018785000    0.000076109    0.002439311    0.008327185
Al        0.000000000    5.710059940    2.018785000    0.000236004   -0.000141820    0.008761541
Al        0.000000000    8.565089900    2.018785000    0.000196249    0.000071158    0.008796142
Al        0.000000000   11.420119870    2.018785000    0.000028792   -0.002428691    0.008417538
Al        2.855029970    0.000000000    2.018785000    0.002444209    0.000070745    0.008324475
Al        2.855029970    2.855029970    2.018785000    0.000959799    0.000955177    0.008595109
Al        2.855029970    5.710059940    2.018785000    0.001528446    0.000166616    0.008471857
Al        2.855029970    8.565089900    2.018785000    0.001509332   -0.000062828    0.008448309
Al        2.855029970   11.420119870    2.018785000    0.000927739   -0.000752274    0.008630606
Al        5.710059940    0.000000000    2.018785000   -0.000137296    0.000229995    0.008758768
Al        5.710059940    2.855029970    2.018785000    0.000169630    0.001523990    0.008470439
Al        5.710059940    5.710059940    2.018785000    0.000627893    0.000623952    0.007508632
Al        5.710059940    8.565089900    2.018785000    0.000597736   -0.000248930    0.007485988
Al        5.710059940   11.420119870    2.018785000    0.000131304   -0.001104269    0.008465142
Al        8.565089900    0.000000000    2.018785000    0.000076283    0.000191208    0.008794111
Al        8.565089900    2.855029970    2.018785000   -0.000057462    0.001506199    0.008447489
Al        8.565089900    5.710059940    2.018785000   -0.000243794    0.000594621    0.007484842
Al        8.565089900    8.565089900    2.018785000   -0.000228852   -0.000233845    0.007466339
Al        8.565089900   11.420119870    2.018785000   -0.000006691   -0.001149713    0.008478942
Al       11.420119870    0.000000000    2.018785000   -0.002423512    0.000024947    0.008416664
Al       11.420119870    2.855029970    2.018785000   -0.000746846    0.000922087    0.008631253
Al       11.420119870    5.710059940    2.018785000   -0.001099021    0.000127099    0.008467138
Al       11.420119870    8.565089900    2.018785000   -0.001143732   -0.000010157    0.008480554
Al       11.420119870   11.420119870    2.018785000   -0.000837300   -0.000843356    0.008659168
Al        1.427500000    1.427500000    0.000000000    0.000471944    0.000470284   -0.007632431
Al        1.427500000    4.282529970    0.000000000    0.000242052    0.000126915   -0.007079139
Al        1.427500000    7.137559940    0.000000000    0.000500777    0.000052061   -0.008660618
Al        1.427500000    9.992589900    0.000000000    0.000288714   -0.000097282   -0.007086100
Al        1.427500000   12.847619870    0.000000000    0.000517788   -0.000407801   -0.007601077
Al        4.282529970    1.427500000    0.000000000    0.000126651    0.000243135   -0.007079233
Al        4.282529970    4.282529970    0.000000000    0.001521003    0.001520369   -0.009434589
Al        4.282529970    7.137559940    0.000000000    0.000001211    0.000016174   -0.010295839
Al        4.282529970    9.992589900    0.000000000    0.001549885   -0.001437632   -0.009502459
Al        4.282529970   12.847619870    0.000000000    0.000152096   -0.000303014   -0.007133633
Al        7.137559940    1.427500000    0.000000000    0.000053953    0.000501523   -0.008662033
Al        7.137559940    4.282529970    0.000000000    0.000016868    0.000001855   -0.010298100
Al        7.137559940    7.137559940    0.000000000   -0.000008580   -0.000009770   -0.008193992
Al        7.137559940    9.992589900    0.000000000    0.000023064    0.000017245   -0.010364880
Al        7.137559940   12.847619870    0.000000000    0.000053918   -0.000550784   -0.008739911
Al        9.992589900    1.427500000    0.000000000   -0.000096556    0.000288790   -0.007086958
Al        9.992589900    4.282529970    0.000000000   -0.001436902    0.001550316   -0.009503793
Al        9.992589900    7.137559940    0.000000000    0.000017125    0.000021759   -0.010365290
Al        9.992589900    9.992589900    0.000000000   -0.001486119   -0.001488029   -0.009546977
Al        9.992589900   12.847619870    0.000000000   -0.000123968   -0.000348665   -0.007123105
Al       12.847619870    1.427500000    0.000000000   -0.000407698    0.000517626   -0.007600982
Al       12.847619870    4.282529970    0.000000000   -0.000303554    0.000153102   -0.007134553
Al       12.847619870    7.137559940    0.000000000   -0.000549554    0.000052092   -0.008741138
Al       12.847619870    9.992589900    0.000000000   -0.000348208   -0.000125923   -0.007123410
Al       12.847619870   12.847619870    0.000000000   -0.000450553   -0.000451627   -0.007563478
