 CRYSTAL
 PRIMVEC
   14.275149902    0.000000000    0.000000000
    0.000000000   14.275149902    0.000000000
    0.000000000    0.000000000   25.093925130
 PRIMCOORD
         151           1
Al        9.938719503    7.135785077   12.199405406   -0.000589392    0.000007408    0.000600816
Al        2.851480197    2.852530639   10.449898326   -0.000258440    0.000004102    0.000029799
Al        2.819296080    5.710036886   10.456151060   -0.000230678    0.000024427   -0.000033855
Al        2.819275079    8.561668628   10.456165677   -0.000228600   -0.000014383   -0.000035400
Al        2.851133909   11.419345306   10.450129787   -0.000257682    0.000006747    0.000025443
Al        2.855368744   14.273544259   10.451205100    0.000021435    0.000003901   -0.000123252
Al        5.699848788    2.852841006   10.445533797    0.000000063    0.000016746    0.000107432
Al        5.633175722    5.709166583   10.448633772    0.000493765   -0.000213913    0.000066388
Al        5.633217287    8.562630373   10.448710393    0.000492147    0.000229515    0.000064258
Al        5.699542677   11.419259615   10.445714921    0.000001691   -0.000005891    0.000103238
Al        5.707774731   14.273690576   10.446166511   -0.000005293    0.000002843   -0.000029460
Al        8.552748050    2.816600902   10.451916274   -0.000002643    0.000064648   -0.000087229
Al        8.446096991    5.632982202   10.482201738    0.000669504    0.000275282    0.000520098
Al        8.446163187    8.638965987   10.482247620    0.000668152   -0.000264491    0.000516569
Al        8.552378219   11.455390535   10.452113871   -0.000003289   -0.000054543   -0.000092285
Al        8.562558228   14.273648860   10.451935911    0.000032693    0.000004405    0.000000049
Al       11.409588876    2.821738252   10.457755536   -0.000021532   -0.000593482    0.000067506
Al       11.446141496    5.640231112   10.495381799    0.000714477   -0.000270638   -0.000184251
Al       11.446110218    8.631793256   10.495632056    0.000716570    0.000279844   -0.000187270
Al       11.409276165   11.450232404   10.458050291   -0.000017894    0.000602967    0.000062196
Al       11.413688305   14.273586780   10.457024154    0.000026386    0.000005969   -0.000070398
Al       14.270636976    2.848916005   10.459210977    0.000111783   -0.000123859   -0.000180631
Al       14.268013804    5.705719756   10.464389022    0.000742037    0.000273901   -0.000240233
Al       14.268001267    8.565932073   10.464327976    0.000739061   -0.000257592   -0.000241267
Al       14.270349373   11.422960316   10.459362688    0.000113874    0.000134558   -0.000182594
Al       14.275211936   14.273580373   10.455246214   -0.000008031    0.000004156   -0.000059775
Al        1.425234177    1.425963452    8.368786915   -0.000031026   -0.000024542   -0.000142174
Al        1.408643836    4.280853950    8.369263983    0.000021751   -0.000003687   -0.000173842
Al        1.388201769    7.135964370    8.365191720    0.000131009    0.000003642   -0.000255545
Al        1.408499896    9.991053399    8.369342932    0.000023557    0.000015101   -0.000176911
Al        1.425114935   12.845847189    8.368775018   -0.000029251    0.000042552   -0.000143655
Al        4.280602984    1.425863141    8.361599883   -0.000089706   -0.000047017    0.000038599
Al        4.260248133    4.281333707    8.357615141    0.000084582   -0.000004065    0.000156394
Al        4.250163188    7.136043608    8.350472610    0.000419727    0.000003675    0.000082596
Al        4.260136865    9.990710270    8.357815401    0.000085111    0.000014996    0.000153977
Al        4.280453037   12.846061048    8.361751569   -0.000088138    0.000062432    0.000036043
Al        7.135733511    1.425445780    8.357710153   -0.000090845   -0.000227661    0.000078095
Al        7.109107031    4.275449922    8.358916348    0.000364198   -0.000171458    0.000390526
Al        7.115279527    7.136149435    8.385133446    0.000396347    0.000003575    0.000127254
Al        7.108980287    9.996749641    8.358999839    0.000365213    0.000181565    0.000391912
Al        7.135628229   12.846718495    8.357674968   -0.000089214    0.000242398    0.000074601
Al        9.989973100    1.429668822    8.355127434    0.000011410    0.000131669    0.000011858
Al        9.975416370    4.294819974    8.392531008   -0.000438620    0.000052218   -0.000011905
Al        9.956647497    7.136151454    8.520429802    0.000195657    0.000000264    0.000528497
Al        9.975289884    9.977360916    8.392748237   -0.000435836   -0.000042048   -0.000010890
Al        9.989886697   12.842345916    8.355248448    0.000011039   -0.000117908    0.000008253
Al       12.845620892    1.421885132    8.368219268   -0.000100135    0.000353053   -0.000104325
Al       12.832300984    4.272998046    8.382295263    0.000479129    0.000090016   -0.000898747
Al       12.800266722    7.136102877    8.398881920    0.000026352    0.000006660    0.000092921
Al       12.832137634    9.999187276    8.382443710    0.000477716   -0.000083303   -0.000897184
Al       12.845528380   12.850092692    8.368310440   -0.000099320   -0.000337550   -0.000105848
Al        2.847356239    2.860262825    6.265579334   -0.000165435   -0.000046138   -0.000106507
Al        2.836092529    5.710824905    6.277765045   -0.000031042    0.000027746   -0.000182802
Al        2.836073292    8.561733508    6.277774493   -0.000031679   -0.000017878   -0.000182796
Al        2.847311821   11.412260947    6.265659394   -0.000165939    0.000058216   -0.000105496
Al        2.856214743   14.273819267    6.265225163   -0.000169084    0.000005536   -0.000070652
Al        5.705060580    2.856575444    6.266070366   -0.000096048   -0.000094062   -0.000163540
Al        5.701302531    5.712875127    6.270236326   -0.000010911    0.000072534    0.000095966
Al        5.701206470    8.559708286    6.270216745   -0.000011533   -0.000061096    0.000096183
Al        5.705069546   11.415985997    6.266146303   -0.000096956    0.000105256   -0.000163554
Al        5.718459923   14.273868668    6.261738736   -0.000127251    0.000006013   -0.000062803
Al        8.562042299    2.862998671    6.273280633    0.000185522   -0.000004222    0.000116617
Al        8.566650687    5.726193093    6.294291911    0.000030969   -0.000055210    0.000241679
Al        8.566582337    8.546587685    6.294239548    0.000032048    0.000064649    0.000240700
Al        8.562029676   11.409797796    6.273320394    0.000184182    0.000012829    0.000115196
Al        8.569345830   14.273931365    6.273583235   -0.000054727    0.000004253    0.000013435
Al       11.410825604    2.862501350    6.278743792    0.000032055   -0.000002532    0.000064782
Al       11.390052981    5.724197216    6.299136499    0.000110357   -0.000006140    0.000171505
Al       11.390014201    8.548530293    6.299211892    0.000110939    0.000015871    0.000170488
Al       11.410816746   11.410122675    6.278887990    0.000032703    0.000010273    0.000061402
Al       11.420803122   14.273876286    6.278399629   -0.000103062    0.000004956   -0.000183768
Al       14.265349832    2.855841915    6.274184038   -0.000142040    0.000163444    0.000121919
Al       14.250736955    5.711059453    6.282296289   -0.000112933    0.000123469    0.000098821
Al       14.250650461    8.561434877    6.282258870   -0.000111738   -0.000113300    0.000098415
Al       14.265319248   11.416648380    6.274216076   -0.000140425   -0.000152160    0.000121333
Al       14.270829888   14.273807678    6.268813494   -0.000044661    0.000006064   -0.000123416
Al        1.415700325    1.436543365    4.117799628    0.000059036   -0.000048266   -0.000065195
Al        1.419801445    4.287035676    4.126695581   -0.000018701   -0.000067054   -0.000096111
Al        1.416965584    7.136896879    4.126387303   -0.000109563    0.000004174   -0.000068851
Al        1.419827694    9.986679025    4.126687043   -0.000016994    0.000073186   -0.000097725
Al        1.415725663   12.837220192    4.117859207    0.000060647    0.000051132   -0.000068434
Al        4.290011960    1.436283229    4.116257941   -0.000041530   -0.000024188   -0.000050054
Al        4.275195514    4.285709423    4.123592099    0.000024490    0.000141113   -0.000040141
Al        4.273614300    7.136872216    4.122010928   -0.000011193    0.000003281    0.000035370
Al        4.275227017    9.988058745    4.123611002    0.000024205   -0.000135148   -0.000042679
Al        4.290022760   12.837442440    4.116297538   -0.000042307    0.000027911   -0.000052607
Al        7.141329270    1.426997684    4.122813554    0.000011694    0.000016150    0.000002916
Al        7.139097360    4.288056367    4.134536368   -0.000072679    0.000076605    0.000014843
Al        7.142489398    7.136846696    4.123619795   -0.000077380    0.000004953    0.000235685
Al        7.139147742    9.985597796    4.134553877   -0.000072730   -0.000070625    0.000010938
Al        7.141334371   12.846602263    4.122874290    0.000011865   -0.000011323   -0.000000776
Al        9.992958599    1.427759727    4.123729610   -0.000108627    0.000042933   -0.000018339
Al        9.988784989    4.293325301    4.126373585   -0.000039764    0.000027917    0.000132696
Al        9.987726953    7.136853296    4.127343082   -0.000115869    0.000003326    0.000323960
Al        9.988805060    9.980325017    4.126396983   -0.000039056   -0.000019109    0.000129476
Al        9.993008452   12.845832006    4.123794201   -0.000109572   -0.000039608   -0.000020383
Al       12.842183782    1.427092705    4.127089452   -0.000049120    0.000008469   -0.000158842
Al       12.836657749    4.288252099    4.138949463   -0.000121812   -0.000063360   -0.000073447
Al       12.829695502    7.136857512    4.129263143   -0.000112663    0.000002923    0.000015676
Al       12.836739020    9.985441140    4.139008181   -0.000121552    0.000068200   -0.000078350
Al       12.842164816   12.846480309    4.127115277   -0.000049637   -0.000004650   -0.000161153
Al        0.000000000    0.000000000    2.018785000   -0.002307117   -0.000019683    0.008574141
Al        0.000000000    2.855029970    2.018785000   -0.000744242    0.000612468    0.008789101
Al        0.000000000    5.710059940    2.018785000   -0.001265976   -0.000014611    0.008516027
Al        0.000000000    8.565089900    2.018785000   -0.001269924   -0.000028884    0.008539546
Al        0.000000000   11.420119870    2.018785000   -0.000738650   -0.000639925    0.008792830
Al        2.855029970    0.000000000    2.018785000   -0.000226116   -0.000026799    0.008556593
Al        2.855029970    2.855029970    2.018785000   -0.000154824    0.002184666    0.008553027
Al        2.855029970    5.710059940    2.018785000   -0.000276157   -0.000233508    0.008916955
Al        2.855029970    8.565089900    2.018785000   -0.000267703    0.000195171    0.008922028
Al        2.855029970   11.420119870    2.018785000   -0.000163307   -0.002218032    0.008544429
Al        5.710059940    0.000000000    2.018785000    0.002054484   -0.000018141    0.008514685
Al        5.710059940    2.855029970    2.018785000    0.000485445    0.000666756    0.008606033
Al        5.710059940    5.710059940    2.018785000    0.000885741   -0.000105347    0.008329621
Al        5.710059940    8.565089900    2.018785000    0.000881120    0.000064237    0.008339409
Al        5.710059940   11.420119870    2.018785000    0.000491674   -0.000702386    0.008605170
Al        8.565089900    0.000000000    2.018785000   -0.000158666   -0.000023700    0.008860807
Al        8.565089900    2.855029970    2.018785000   -0.000049033    0.001144341    0.008329999
Al        8.565089900    5.710059940    2.018785000    0.000165616    0.000254614    0.007084707
Al        8.565089900    8.565089900    2.018785000    0.000169218   -0.000298349    0.007103552
Al        8.565089900   11.420119870    2.018785000   -0.000047956   -0.001167526    0.008336305
Al       11.420119870    0.000000000    2.018785000    0.000320409   -0.000018498    0.008926667
Al       11.420119870    2.855029970    2.018785000    0.000106178    0.001085263    0.008486647
Al       11.420119870    5.710059940    2.018785000   -0.000332586    0.000263831    0.007291780
Al       11.420119870    8.565089900    2.018785000   -0.000330039   -0.000297922    0.007291449
Al       11.420119870   11.420119870    2.018785000    0.000101992   -0.001125671    0.008481926
Al        1.427500000    1.427500000    0.000000000   -0.000543212    0.000386447   -0.007680391
Al        1.427500000    4.282529970    0.000000000   -0.000273444    0.000065043   -0.006956206
Al        1.427500000    7.137559940    0.000000000   -0.000554032   -0.000007584   -0.008590746
Al        1.427500000    9.992589900    0.000000000   -0.000270413   -0.000067835   -0.006959700
Al        1.427500000   12.847619870    0.000000000   -0.000540105   -0.000388245   -0.007673388
Al        4.282529970    1.427500000    0.000000000    0.000436479    0.000538590   -0.007682558
Al        4.282529970    4.282529970    0.000000000    0.000370534    0.000136908   -0.007067162
Al        4.282529970    7.137559940    0.000000000    0.000589965   -0.000002067   -0.008711530
Al        4.282529970    9.992589900    0.000000000    0.000361822   -0.000139246   -0.007073931
Al        4.282529970   12.847619870    0.000000000    0.000429894   -0.000541318   -0.007683721
Al        7.137559940    1.427500000    0.000000000    0.000089252    0.000329834   -0.007056425
Al        7.137559940    4.282529970    0.000000000    0.001484680    0.001532115   -0.009579105
Al        7.137559940    7.137559940    0.000000000   -0.000005342   -0.000003229   -0.010471623
Al        7.137559940    9.992589900    0.000000000    0.001481581   -0.001533998   -0.009579908
Al        7.137559940   12.847619870    0.000000000    0.000088857   -0.000323269   -0.007038956
Al        9.992589900    1.427500000    0.000000000   -0.000118581    0.000549283   -0.008647238
Al        9.992589900    4.282529970    0.000000000   -0.000087680    0.000005417   -0.010383228
Al        9.992589900    7.137559940    0.000000000   -0.000034049   -0.000003009   -0.008215648
Al        9.992589900    9.992589900    0.000000000   -0.000088795   -0.000002795   -0.010386613
Al        9.992589900   12.847619870    0.000000000   -0.000120289   -0.000548336   -0.008636136
Al       12.847619870    1.427500000    0.000000000   -0.000142239    0.000255201   -0.006998756
Al       12.847619870    4.282529970    0.000000000   -0.001592397    0.001504171   -0.009427590
Al       12.847619870    7.137559940    0.000000000   -0.000040130   -0.000001200   -0.010332190
Al       12.847619870    9.992589900    0.000000000   -0.001601355   -0.001505114   -0.009427560
Al       12.847619870   12.847619870    0.000000000   -0.000135951   -0.000252646   -0.006991100
