
     Program PWSCF v.7.0 starts on 22Jun2023 at 11: 7:20 

     This program is part of the open-source Quantum ESPRESSO suite
     for quantum simulation of materials; please cite
         "P. Giannozzi et al., J. Phys.:Condens. Matter 21 395502 (2009);
         "P. Giannozzi et al., J. Phys.:Condens. Matter 29 465901 (2017);
         "P. Giannozzi et al., J. Chem. Phys. 152 154105 (2020);
          URL http://www.quantum-espresso.org", 
     in publications or presentations arising from this work. More details at
     http://www.quantum-espresso.org/quote

     Parallel version (MPI), running on     2 processors

     MPI processes distributed on     1 nodes
     R & G space division:  proc/nbgrp/npool/nimage =       2
     3477 MiB available memory on the printing compute node when the environment starts

     Waiting for input...
     Reading input from standard input

     Current dimensions of program PWSCF are:
     Max number of different atomic species (ntypx) = 10
     Max number of k-points (npk) =  40000
     Max angular momentum in pseudopotentials (lmaxx) =  4
     file H.pbe-kjpaw_psl.1.0.0.UPF: wavefunction(s)  1S renormalized
     file N.pbe-n-kjpaw_psl.1.0.0.UPF: wavefunction(s)  2S renormalized

     gamma-point specific algorithms are used

     Subspace diagonalization in iterative solution of the eigenvalue problem:
     a serial algorithm will be used


     Parallelization info
     --------------------
     sticks:   dense  smooth     PW     G-vecs:    dense   smooth      PW
     Min         913     913    228                29445    29445    3624
     Max         916     916    229                29448    29448    3625
     Sum        1829    1829    457                58893    58893    7249

     Using Slab Decomposition



     bravais-lattice index     =            1
     lattice parameter (alat)  =      12.0000  a.u.
     unit-cell volume          =    1728.0000 (a.u.)^3
     number of atoms/cell      =            4
     number of atomic types    =            2
     number of electrons       =         8.00
     number of Kohn-Sham states=            8
     kinetic-energy cutoff     =      40.0000  Ry
     charge density cutoff     =     160.0000  Ry
     scf convergence threshold =      1.0E-06
     mixing beta               =       0.7000
     number of iterations used =            8  plain     mixing
     energy convergence thresh.=      1.0E-06
     force convergence thresh. =      5.0E-04
     Exchange-correlation= SLA  PW   PBX  PBC
                           (   1   4   3   4   0   0   0)
     nstep                     =          455


     celldm(1)=  12.000000  celldm(2)=   0.000000  celldm(3)=   0.000000
     celldm(4)=   0.000000  celldm(5)=   0.000000  celldm(6)=   0.000000

     crystal axes: (cart. coord. in units of alat)
               a(1) = (   1.000000   0.000000   0.000000 )  
               a(2) = (   0.000000   1.000000   0.000000 )  
               a(3) = (   0.000000   0.000000   1.000000 )  

     reciprocal axes: (cart. coord. in units 2 pi/alat)
               b(1) = (  1.000000  0.000000  0.000000 )  
               b(2) = (  0.000000  1.000000  0.000000 )  
               b(3) = (  0.000000  0.000000  1.000000 )  


     PseudoPot. # 1 for H  read from file:
     ./H.pbe-kjpaw_psl.1.0.0.UPF
     MD5 check sum: 558557d8d69ab0f531dece9dcd46538f
     Pseudo is Projector augmented-wave, Zval =  1.0
     Generated using &quot;atomic&quot; code by A. Dal Corso  v.6.4.1
     Shape of augmentation charge: PSQ
     Using radial grid of  929 points,  2 beta functions with: 
                l(1) =   0
                l(2) =   0
     Q(r) pseudized with 0 coefficients 


     PseudoPot. # 2 for N  read from file:
     ./N.pbe-n-kjpaw_psl.1.0.0.UPF
     MD5 check sum: 56adaa6d22142344efd0663c987386a3
     Pseudo is Projector augmented-wave + core cor, Zval =  5.0
     Generated using "atomic" code by A. Dal Corso  v.5.3.0 svn rev. 11974
     Shape of augmentation charge: PSQ
     Using radial grid of 1085 points,  4 beta functions with: 
                l(1) =   0
                l(2) =   0
                l(3) =   1
                l(4) =   1
     Q(r) pseudized with 0 coefficients 


     atomic species   valence    mass     pseudopotential
        H              1.00     1.00783     H ( 1.00)
        N              5.00    14.00674     N ( 1.00)

     No symmetry found



   Cartesian axes

     site n.     atom                  positions (alat units)
         1           N   tau(   1) = (   0.0000001   0.0000247   0.4759312  )
         2           H   tau(   2) = (   0.1287413   0.0743755   0.4139862  )
         3           H   tau(   3) = (  -0.1287413   0.0743757   0.4139867  )
         4           H   tau(   4) = (  -0.0000001  -0.1485482   0.4137749  )

     number of k points=     1  Gaussian smearing, width (Ry)=  0.0500
                       cart. coord. in units 2pi/alat
        k(    1) = (   0.0000000   0.0000000   0.0000000), wk =   2.0000000

     Dense  grid:    29447 G-vectors     FFT dimensions: (  50,  50,  50)

     Estimated max dynamical RAM per process >      23.41 MB

     Estimated total dynamical RAM >      46.82 MB

     Check: negative core charge=   -0.000004

     Initial potential from superposition of free atoms

     starting charge       8.0000, renormalised to       8.0000

     negative rho (up, down):  4.261E-04 0.000E+00
     Starting wfcs are    7 randomized atomic wfcs +    1 random wfcs
     Checking if some PAW data can be deallocated... 

     total cpu time spent up to now is        0.7 secs

     Self-consistent Calculation

     iteration #  1     ecut=    40.00 Ry     beta= 0.70
     Davidson diagonalization with overlap
     ethr =  1.00E-02,  avg # of iterations =  8.0

     negative rho (up, down):  1.651E-03 0.000E+00

     total cpu time spent up to now is        1.0 secs

     total energy              =     -31.52999284 Ry
     estimated scf accuracy    <       0.66621813 Ry

     iteration #  2     ecut=    40.00 Ry     beta= 0.70
     Davidson diagonalization with overlap
     ethr =  8.33E-03,  avg # of iterations =  2.0

     negative rho (up, down):  8.261E-04 0.000E+00

     total cpu time spent up to now is        1.4 secs

     total energy              =     -31.67993140 Ry
     estimated scf accuracy    <       0.54959131 Ry

     iteration #  3     ecut=    40.00 Ry     beta= 0.70
     Davidson diagonalization with overlap
     ethr =  6.87E-03,  avg # of iterations =  2.0

     negative rho (up, down):  2.508E-03 0.000E+00

     total cpu time spent up to now is        1.7 secs

     total energy              =     -31.78993054 Ry
     estimated scf accuracy    <       0.00617883 Ry

     iteration #  4     ecut=    40.00 Ry     beta= 0.70
     Davidson diagonalization with overlap
     ethr =  7.72E-05,  avg # of iterations =  7.0

     negative rho (up, down):  2.062E-03 0.000E+00

     total cpu time spent up to now is        2.0 secs

     total energy              =     -31.79110530 Ry
     estimated scf accuracy    <       0.00057568 Ry

     iteration #  5     ecut=    40.00 Ry     beta= 0.70
     Davidson diagonalization with overlap
     ethr =  7.20E-06,  avg # of iterations = 10.0

     negative rho (up, down):  2.238E-03 0.000E+00

     total cpu time spent up to now is        2.4 secs

     total energy              =     -31.79112780 Ry
     estimated scf accuracy    <       0.00002029 Ry

     iteration #  6     ecut=    40.00 Ry     beta= 0.70
     Davidson diagonalization with overlap
     ethr =  2.54E-07,  avg # of iterations =  2.0

     negative rho (up, down):  2.265E-03 0.000E+00

     total cpu time spent up to now is        2.7 secs

     total energy              =     -31.79113417 Ry
     estimated scf accuracy    <       0.00000853 Ry

     iteration #  7     ecut=    40.00 Ry     beta= 0.70
     Davidson diagonalization with overlap
     ethr =  1.07E-07,  avg # of iterations =  2.0

     negative rho (up, down):  2.265E-03 0.000E+00

     total cpu time spent up to now is        3.0 secs

     End of self-consistent calculation

          k = 0.0000 0.0000 0.0000 (  3625 PWs)   bands (ev):

   -20.5515 -10.6219 -10.6192  -5.5918  -1.0606   2.0926   2.5100   2.6678

     the Fermi energy is    -3.3262 ev

!    total energy              =     -31.79113508 Ry
     estimated scf accuracy    <       0.00000014 Ry
     smearing contrib. (-TS)   =      -0.00000086 Ry
     internal energy E=F+TS    =     -31.79113422 Ry

     convergence has been achieved in   7 iterations

     negative rho (up, down):  2.265E-03 0.000E+00

     Forces acting on atoms (cartesian axes, Ry/au):

     atom    1 type  2   force =     0.00000000    0.00000000   -0.91144426
     atom    2 type  1   force =     0.00000000    0.00000000    0.00000000
     atom    3 type  1   force =    -0.00000000   -0.00000000    0.00000000
     atom    4 type  1   force =    -0.00000000   -0.00000000   -0.00000000

     Total force =     0.911444     Total SCF correction =     0.000326

     Entering FIRE :       iteration =     1

     FIRE Parameters: P = 0.00000000, dt = 20.00, alpha = 0.000 nsteppos =   1 at step  1


ATOMIC_POSITIONS (angstrom)
N             0.0000006633        0.0001566805        2.8105526233
H             0.8175233785        0.4722939697        2.6288644578
H            -0.8175232760        0.4722948789        2.6288679375
H            -0.0000007658       -0.9432995491        2.6275226740



     Writing config-only to output data dir ./pwscf.save/
     NEW-OLD atomic charge density approx. for the potential

     Check: negative core charge=   -0.000004

     negative rho (up, down):  1.798E-03 0.000E+00

     total cpu time spent up to now is        3.5 secs

     Self-consistent Calculation

     iteration #  1     ecut=    40.00 Ry     beta= 0.70
     Davidson diagonalization with overlap
     ethr =  1.00E-06,  avg # of iterations = 10.0

     negative rho (up, down):  2.457E-03 0.000E+00

     total cpu time spent up to now is        3.9 secs

     total energy              =     -31.75146207 Ry
     estimated scf accuracy    <       0.05056278 Ry

     iteration #  2     ecut=    40.00 Ry     beta= 0.70
     Davidson diagonalization with overlap
     ethr =  6.32E-04,  avg # of iterations =  2.0

     negative rho (up, down):  2.324E-03 0.000E+00

     total cpu time spent up to now is        4.2 secs

     total energy              =     -31.76355346 Ry
     estimated scf accuracy    <       0.02429889 Ry

     iteration #  3     ecut=    40.00 Ry     beta= 0.70
     Davidson diagonalization with overlap
     ethr =  3.04E-04,  avg # of iterations =  2.0

     negative rho (up, down):  2.483E-03 0.000E+00

     total cpu time spent up to now is        4.5 secs

     total energy              =     -31.76886531 Ry
     estimated scf accuracy    <       0.00042569 Ry

     iteration #  4     ecut=    40.00 Ry     beta= 0.70
     Davidson diagonalization with overlap
     ethr =  5.32E-06,  avg # of iterations =  4.0

     negative rho (up, down):  2.566E-03 0.000E+00

     total cpu time spent up to now is        4.8 secs

     total energy              =     -31.76894163 Ry
     estimated scf accuracy    <       0.00001604 Ry

     iteration #  5     ecut=    40.00 Ry     beta= 0.70
     Davidson diagonalization with overlap
     ethr =  2.00E-07,  avg # of iterations =  5.0

     negative rho (up, down):  2.571E-03 0.000E+00

     total cpu time spent up to now is        5.1 secs

     total energy              =     -31.76894407 Ry
     estimated scf accuracy    <       0.00000165 Ry

     iteration #  6     ecut=    40.00 Ry     beta= 0.70
     Davidson diagonalization with overlap
     ethr =  2.06E-08,  avg # of iterations =  2.0

     negative rho (up, down):  2.570E-03 0.000E+00

     total cpu time spent up to now is        5.4 secs

     End of self-consistent calculation

          k = 0.0000 0.0000 0.0000 (  3625 PWs)   bands (ev):

   -20.7463 -11.4330 -11.4329  -5.0328  -0.9664   2.1838   2.4950   2.7417

     the Fermi energy is    -2.9996 ev

!    total energy              =     -31.76894431 Ry
     estimated scf accuracy    <          9.6E-09 Ry
     smearing contrib. (-TS)   =      -0.00000745 Ry
     internal energy E=F+TS    =     -31.76893686 Ry

     convergence has been achieved in   6 iterations

     negative rho (up, down):  2.570E-03 0.000E+00

     Forces acting on atoms (cartesian axes, Ry/au):

     atom    1 type  2   force =    -0.00000113    0.00085516    0.00000000
     atom    2 type  1   force =     0.08246239    0.04757236   -0.02586563
     atom    3 type  1   force =    -0.08246087    0.04757127   -0.02586423
     atom    4 type  1   force =    -0.00000039   -0.09599879   -0.02623558

     Total force =     0.171373     Total SCF correction =     0.000100

     Entering FIRE :       iteration =     2

     FIRE Parameters: P = 0.00000000, dt = 22.00, alpha = 0.198 nsteppos =   6 at step  2


ATOMIC_POSITIONS (angstrom)
N             0.0000003456        0.0003969853        2.8105526233
H             0.8406958460        0.4856621129        2.6215960471
H            -0.8406953172        0.4856627168        2.6215999198
H            -0.0000008744       -0.9702758351        2.6201503058



     Writing config-only to output data dir ./pwscf.save/
     NEW-OLD atomic charge density approx. for the potential

     Check: negative core charge=   -0.000004

     negative rho (up, down):  2.335E-03 0.000E+00

     total cpu time spent up to now is        5.9 secs

     Self-consistent Calculation

     iteration #  1     ecut=    40.00 Ry     beta= 0.70
     Davidson diagonalization with overlap
     ethr =  1.00E-06,  avg # of iterations =  5.0

     negative rho (up, down):  2.287E-03 0.000E+00

     total cpu time spent up to now is        6.3 secs

     total energy              =     -31.77798951 Ry
     estimated scf accuracy    <       0.00396611 Ry

     iteration #  2     ecut=    40.00 Ry     beta= 0.70
     Davidson diagonalization with overlap
     ethr =  4.96E-05,  avg # of iterations =  2.0

     negative rho (up, down):  2.376E-03 0.000E+00

     total cpu time spent up to now is        6.6 secs

     total energy              =     -31.77908732 Ry
     estimated scf accuracy    <       0.00300782 Ry

     iteration #  3     ecut=    40.00 Ry     beta= 0.70
     Davidson diagonalization with overlap
     ethr =  3.76E-05,  avg # of iterations =  2.0

     negative rho (up, down):  2.420E-03 0.000E+00

     total cpu time spent up to now is        6.9 secs

     total energy              =     -31.77963615 Ry
     estimated scf accuracy    <       0.00000986 Ry

     iteration #  4     ecut=    40.00 Ry     beta= 0.70
     Davidson diagonalization with overlap
     ethr =  1.23E-07,  avg # of iterations =  2.0

     negative rho (up, down):  2.420E-03 0.000E+00

     total cpu time spent up to now is        7.2 secs

     total energy              =     -31.77964013 Ry
     estimated scf accuracy    <       0.00000295 Ry

     iteration #  5     ecut=    40.00 Ry     beta= 0.70
     Davidson diagonalization with overlap
     ethr =  3.69E-08,  avg # of iterations =  2.0

     negative rho (up, down):  2.419E-03 0.000E+00

     total cpu time spent up to now is        7.5 secs

     End of self-consistent calculation

          k = 0.0000 0.0000 0.0000 (  3625 PWs)   bands (ev):

   -20.4503 -11.2086 -11.2035  -4.9912  -1.0080   2.1076   2.4323   2.7196

     the Fermi energy is    -2.9996 ev

!    total energy              =     -31.77964036 Ry
     estimated scf accuracy    <       0.00000014 Ry
     smearing contrib. (-TS)   =      -0.00001069 Ry
     internal energy E=F+TS    =     -31.77962967 Ry

     convergence has been achieved in   5 iterations

     negative rho (up, down):  2.419E-03 0.000E+00

     Forces acting on atoms (cartesian axes, Ry/au):

     atom    1 type  2   force =     0.00000064   -0.00048530    0.00000000
     atom    2 type  1   force =     0.03090029    0.01783814   -0.01660451
     atom    3 type  1   force =    -0.03090088    0.01783853   -0.01660438
     atom    4 type  1   force =    -0.00000005   -0.03519138   -0.01661710

     Total force =     0.067914     Total SCF correction =     0.000206

     Entering FIRE :       iteration =     3

     FIRE Parameters: P = 0.00002306, dt = 24.20, alpha = 0.196 nsteppos =   7 at step  3


ATOMIC_POSITIONS (angstrom)
N             0.0000003809        0.0003706310        2.8105526233
H             0.8763989352        0.5062649690        2.6069948838
H            -0.8763983190        0.5062654930        2.6069991677
H            -0.0000009971       -1.0114551131        2.6054510075



     Writing config-only to output data dir ./pwscf.save/
     NEW-OLD atomic charge density approx. for the potential

     Check: negative core charge=   -0.000004

     negative rho (up, down):  2.086E-03 0.000E+00

     total cpu time spent up to now is        8.0 secs

     Self-consistent Calculation

     iteration #  1     ecut=    40.00 Ry     beta= 0.70
     Davidson diagonalization with overlap
     ethr =  1.00E-06,  avg # of iterations =  8.0

     negative rho (up, down):  1.990E-03 0.000E+00

     total cpu time spent up to now is        8.4 secs

     total energy              =     -31.77602261 Ry
     estimated scf accuracy    <       0.00852394 Ry

     iteration #  2     ecut=    40.00 Ry     beta= 0.70
     Davidson diagonalization with overlap
     ethr =  1.07E-04,  avg # of iterations =  2.0

     negative rho (up, down):  2.107E-03 0.000E+00

     total cpu time spent up to now is        8.7 secs

     total energy              =     -31.77830102 Ry
     estimated scf accuracy    <       0.00747603 Ry

     iteration #  3     ecut=    40.00 Ry     beta= 0.70
     Davidson diagonalization with overlap
     ethr =  9.35E-05,  avg # of iterations =  2.0

     negative rho (up, down):  2.170E-03 0.000E+00

     total cpu time spent up to now is        8.9 secs

     total energy              =     -31.77965412 Ry
     estimated scf accuracy    <       0.00002326 Ry

     iteration #  4     ecut=    40.00 Ry     beta= 0.70
     Davidson diagonalization with overlap
     ethr =  2.91E-07,  avg # of iterations =  2.0

     negative rho (up, down):  2.169E-03 0.000E+00

     total cpu time spent up to now is        9.2 secs

     total energy              =     -31.77966377 Ry
     estimated scf accuracy    <       0.00000733 Ry

     iteration #  5     ecut=    40.00 Ry     beta= 0.70
     Davidson diagonalization with overlap
     ethr =  9.16E-08,  avg # of iterations =  2.0

     negative rho (up, down):  2.168E-03 0.000E+00

     total cpu time spent up to now is        9.6 secs

     End of self-consistent calculation

          k = 0.0000 0.0000 0.0000 (  3625 PWs)   bands (ev):

   -20.0194 -10.8694 -10.8646  -4.9387  -1.0893   1.9719   2.3140   2.6657

     the Fermi energy is    -3.0140 ev

!    total energy              =     -31.77966438 Ry
     estimated scf accuracy    <       0.00000033 Ry
     smearing contrib. (-TS)   =      -0.00001884 Ry
     internal energy E=F+TS    =     -31.77964554 Ry

     convergence has been achieved in   5 iterations

     negative rho (up, down):  2.168E-03 0.000E+00

     Forces acting on atoms (cartesian axes, Ry/au):

     atom    1 type  2   force =     0.00000064   -0.00030289   -0.00000000
     atom    2 type  1   force =    -0.03386110   -0.01953819   -0.00509713
     atom    3 type  1   force =     0.03386033   -0.01953789   -0.00509725
     atom    4 type  1   force =     0.00000013    0.03937897   -0.00505060

     Total force =     0.068446     Total SCF correction =     0.000293

     Entering FIRE :       iteration =     4

     FIRE Parameters: P = -.00003007, dt = 12.10, alpha = 0.200 nsteppos =   0 at step  4


ATOMIC_POSITIONS (angstrom)
N             0.0000004176        0.0003580615        2.8105526233
H             0.8556690459        0.4943027074        2.6138621864
H            -0.8556685383        0.4943032965        2.6138662547
H            -0.0000009251       -0.9875180854        2.6123713330



     Writing config-only to output data dir ./pwscf.save/
     NEW-OLD atomic charge density approx. for the potential

     Check: negative core charge=   -0.000004

     negative rho (up, down):  2.414E-03 0.000E+00

     total cpu time spent up to now is       10.0 secs

     Self-consistent Calculation

     iteration #  1     ecut=    40.00 Ry     beta= 0.70
     Davidson diagonalization with overlap
     ethr =  1.00E-06,  avg # of iterations =  6.0

     negative rho (up, down):  2.414E-03 0.000E+00

     total cpu time spent up to now is       10.4 secs

     total energy              =     -31.78091591 Ry
     estimated scf accuracy    <       0.00263574 Ry

     iteration #  2     ecut=    40.00 Ry     beta= 0.70
     Davidson diagonalization with overlap
     ethr =  3.29E-05,  avg # of iterations =  2.0

     negative rho (up, down):  2.335E-03 0.000E+00

     total cpu time spent up to now is       10.8 secs

     total energy              =     -31.78161880 Ry
     estimated scf accuracy    <       0.00208911 Ry

     iteration #  3     ecut=    40.00 Ry     beta= 0.70
     Davidson diagonalization with overlap
     ethr =  2.61E-05,  avg # of iterations =  2.0

     negative rho (up, down):  2.311E-03 0.000E+00

     total cpu time spent up to now is       11.1 secs

     total energy              =     -31.78200685 Ry
     estimated scf accuracy    <       0.00000646 Ry

     iteration #  4     ecut=    40.00 Ry     beta= 0.70
     Davidson diagonalization with overlap
     ethr =  8.07E-08,  avg # of iterations =  2.0

     negative rho (up, down):  2.311E-03 0.000E+00

     total cpu time spent up to now is       11.3 secs

     total energy              =     -31.78200955 Ry
     estimated scf accuracy    <       0.00000176 Ry

     iteration #  5     ecut=    40.00 Ry     beta= 0.70
     Davidson diagonalization with overlap
     ethr =  2.20E-08,  avg # of iterations =  2.0

     negative rho (up, down):  2.312E-03 0.000E+00

     total cpu time spent up to now is       11.6 secs

     End of self-consistent calculation

          k = 0.0000 0.0000 0.0000 (  3625 PWs)   bands (ev):

   -20.2659 -11.0594 -11.0549  -4.9726  -1.0395   2.0541   2.3864   2.7003

     the Fermi energy is    -3.0060 ev

!    total energy              =     -31.78200965 Ry
     estimated scf accuracy    <       0.00000012 Ry
     smearing contrib. (-TS)   =      -0.00001325 Ry
     internal energy E=F+TS    =     -31.78199640 Ry

     convergence has been achieved in   5 iterations

     negative rho (up, down):  2.312E-03 0.000E+00

     Forces acting on atoms (cartesian axes, Ry/au):

     atom    1 type  2   force =     0.00000061   -0.00031001    0.00000000
     atom    2 type  1   force =     0.00100973    0.00058673   -0.01137556
     atom    3 type  1   force =    -0.00101035    0.00058730   -0.01137561
     atom    4 type  1   force =     0.00000001   -0.00086402   -0.01138052

     Total force =     0.019796     Total SCF correction =     0.000183

     Entering FIRE :       iteration =     5

     FIRE Parameters: P = 0.00000005, dt = 12.10, alpha = 0.200 nsteppos =   1 at step  5


ATOMIC_POSITIONS (angstrom)
N             0.0000005406        0.0002972341        2.8105526233
H             0.8534974036        0.4930501807        2.6120393432
H            -0.8534970288        0.4930508646        2.6120433973
H            -0.0000009153       -0.9849522994        2.6105510108



     Writing config-only to output data dir ./pwscf.save/
     NEW-OLD atomic charge density approx. for the potential

     Check: negative core charge=   -0.000004

     negative rho (up, down):  2.332E-03 0.000E+00

     total cpu time spent up to now is       12.1 secs

     Self-consistent Calculation

     iteration #  1     ecut=    40.00 Ry     beta= 0.70
     Davidson diagonalization with overlap
     ethr =  1.00E-06,  avg # of iterations =  2.0

     negative rho (up, down):  2.332E-03 0.000E+00

     total cpu time spent up to now is       12.4 secs

     total energy              =     -31.78208190 Ry
     estimated scf accuracy    <       0.00001231 Ry

     iteration #  2     ecut=    40.00 Ry     beta= 0.70
     Davidson diagonalization with overlap
     ethr =  1.54E-07,  avg # of iterations =  2.0

     negative rho (up, down):  2.327E-03 0.000E+00

     total cpu time spent up to now is       12.7 secs

     total energy              =     -31.78208454 Ry
     estimated scf accuracy    <       0.00000594 Ry

     iteration #  3     ecut=    40.00 Ry     beta= 0.70
     Davidson diagonalization with overlap
     ethr =  7.43E-08,  avg # of iterations =  2.0

     negative rho (up, down):  2.325E-03 0.000E+00

     total cpu time spent up to now is       13.0 secs

     End of self-consistent calculation

          k = 0.0000 0.0000 0.0000 (  3625 PWs)   bands (ev):

   -20.2921 -11.0736 -11.0702  -4.9810  -1.0353   2.0619   2.3938   2.7028

     the Fermi energy is    -3.0081 ev

!    total energy              =     -31.78208583 Ry
     estimated scf accuracy    <       0.00000014 Ry
     smearing contrib. (-TS)   =      -0.00001256 Ry
     internal energy E=F+TS    =     -31.78207328 Ry

     convergence has been achieved in   3 iterations

     negative rho (up, down):  2.325E-03 0.000E+00

     Forces acting on atoms (cartesian axes, Ry/au):

     atom    1 type  2   force =     0.00000000    0.00000000   -0.91144426
     atom    2 type  1   force =     0.00000000    0.00000000    0.00000000
     atom    3 type  1   force =    -0.00000000   -0.00000000    0.00000000
     atom    4 type  1   force =    -0.00000000   -0.00000000   -0.00000000

     Total force =     0.911444     Total SCF correction =     0.000199

     Entering FIRE :       iteration =     6

     FIRE Parameters: P = 0.00000000, dt = 20.00, alpha = 0.000 nsteppos =   1 at step  6


ATOMIC_POSITIONS (angstrom)
N             0.0000005406        0.0002972341        2.5988817358
H             0.8534974036        0.4930501807        2.6120393432
H            -0.8534970288        0.4930508646        2.6120433973
H            -0.0000009153       -0.9849522994        2.6105510108



     Writing config-only to output data dir ./pwscf.save/
     NEW-OLD atomic charge density approx. for the potential

     Check: negative core charge=   -0.000004

     negative rho (up, down):  1.624E-03 0.000E+00

     total cpu time spent up to now is       13.5 secs

     Self-consistent Calculation

     iteration #  1     ecut=    40.00 Ry     beta= 0.70
     Davidson diagonalization with overlap
     ethr =  1.00E-06,  avg # of iterations = 10.0

     negative rho (up, down):  2.006E-03 0.000E+00

     total cpu time spent up to now is       13.9 secs

     total energy              =     -31.76181762 Ry
     estimated scf accuracy    <       0.03887844 Ry

     iteration #  2     ecut=    40.00 Ry     beta= 0.70
     Davidson diagonalization with overlap
     ethr =  4.86E-04,  avg # of iterations =  2.0

     negative rho (up, down):  1.952E-03 0.000E+00

     total cpu time spent up to now is       14.2 secs

     total energy              =     -31.77019332 Ry
     estimated scf accuracy    <       0.00934556 Ry

     iteration #  3     ecut=    40.00 Ry     beta= 0.70
     Davidson diagonalization with overlap
     ethr =  1.17E-04,  avg # of iterations =  2.0

     negative rho (up, down):  2.087E-03 0.000E+00

     total cpu time spent up to now is       14.5 secs

     total energy              =     -31.77257060 Ry
     estimated scf accuracy    <       0.00100505 Ry

     iteration #  4     ecut=    40.00 Ry     beta= 0.70
     Davidson diagonalization with overlap
     ethr =  1.26E-05,  avg # of iterations =  2.0

     negative rho (up, down):  2.185E-03 0.000E+00

     total cpu time spent up to now is       14.8 secs

     total energy              =     -31.77275176 Ry
     estimated scf accuracy    <       0.00001759 Ry

     iteration #  5     ecut=    40.00 Ry     beta= 0.70
     Davidson diagonalization with overlap
     ethr =  2.20E-07,  avg # of iterations =  2.0

     negative rho (up, down):  2.181E-03 0.000E+00

     total cpu time spent up to now is       15.1 secs

     total energy              =     -31.77275304 Ry
     estimated scf accuracy    <       0.00000119 Ry

     iteration #  6     ecut=    40.00 Ry     beta= 0.70
     Davidson diagonalization with overlap
     ethr =  1.48E-08,  avg # of iterations =  2.0

     negative rho (up, down):  2.179E-03 0.000E+00

     total cpu time spent up to now is       15.4 secs

     End of self-consistent calculation

          k = 0.0000 0.0000 0.0000 (  3625 PWs)   bands (ev):

   -20.3245 -11.3348 -11.3346  -4.8010  -0.9979   2.0912   2.4048   2.7294

     the Fermi energy is    -2.8995 ev

!    total energy              =     -31.77275314 Ry
     estimated scf accuracy    <       0.00000006 Ry
     smearing contrib. (-TS)   =      -0.00002281 Ry
     internal energy E=F+TS    =     -31.77273033 Ry

     convergence has been achieved in   6 iterations

     negative rho (up, down):  2.179E-03 0.000E+00

     Forces acting on atoms (cartesian axes, Ry/au):

     atom    1 type  2   force =    -0.00000222    0.00076237   -0.00000000
     atom    2 type  1   force =     0.03175409    0.01826868    0.00138561
     atom    3 type  1   force =    -0.03175210    0.01826783    0.00138575
     atom    4 type  1   force =     0.00000023   -0.03729888    0.00134399

     Total force =     0.063886     Total SCF correction =     0.000140

     Entering FIRE :       iteration =     7

     FIRE Parameters: P = 0.00000000, dt = 22.00, alpha = 0.198 nsteppos =   6 at step  7


ATOMIC_POSITIONS (angstrom)
N            -0.0000000839        0.0005114657        2.5988817358
H             0.8624205090        0.4981837986        2.6124287075
H            -0.8624195751        0.4981842443        2.6124328017
H            -0.0000008500       -0.9954335285        2.6109286796



     Writing config-only to output data dir ./pwscf.save/
     NEW-OLD atomic charge density approx. for the potential

     Check: negative core charge=   -0.000004

     negative rho (up, down):  2.088E-03 0.000E+00

     total cpu time spent up to now is       15.9 secs

     Self-consistent Calculation

     iteration #  1     ecut=    40.00 Ry     beta= 0.70
     Davidson diagonalization with overlap
     ethr =  1.00E-06,  avg # of iterations =  4.0

     negative rho (up, down):  2.074E-03 0.000E+00

     total cpu time spent up to now is       16.2 secs

     total energy              =     -31.77410812 Ry
     estimated scf accuracy    <       0.00047105 Ry

     iteration #  2     ecut=    40.00 Ry     beta= 0.70
     Davidson diagonalization with overlap
     ethr =  5.89E-06,  avg # of iterations =  2.0

     negative rho (up, down):  2.108E-03 0.000E+00

     total cpu time spent up to now is       16.5 secs

     total energy              =     -31.77423449 Ry
     estimated scf accuracy    <       0.00037060 Ry

     iteration #  3     ecut=    40.00 Ry     beta= 0.70
     Davidson diagonalization with overlap
     ethr =  4.63E-06,  avg # of iterations =  2.0

     negative rho (up, down):  2.126E-03 0.000E+00

     total cpu time spent up to now is       16.8 secs

     total energy              =     -31.77430279 Ry
     estimated scf accuracy    <       0.00000131 Ry

     iteration #  4     ecut=    40.00 Ry     beta= 0.70
     Davidson diagonalization with overlap
     ethr =  1.64E-08,  avg # of iterations =  2.0

     negative rho (up, down):  2.121E-03 0.000E+00

     total cpu time spent up to now is       17.1 secs

     End of self-consistent calculation

          k = 0.0000 0.0000 0.0000 (  3625 PWs)   bands (ev):

   -20.2150 -11.2510 -11.2463  -4.7792  -1.0158   2.0607   2.3748   2.7206

     the Fermi energy is    -2.8975 ev

!    total energy              =     -31.77430320 Ry
     estimated scf accuracy    <       0.00000047 Ry
     smearing contrib. (-TS)   =      -0.00002683 Ry
     internal energy E=F+TS    =     -31.77427637 Ry

     convergence has been achieved in   4 iterations

     negative rho (up, down):  2.121E-03 0.000E+00

     Forces acting on atoms (cartesian axes, Ry/au):

     atom    1 type  2   force =     0.00000100   -0.00031499    0.00000000
     atom    2 type  1   force =     0.01415294    0.00815490    0.00118895
     atom    3 type  1   force =    -0.01415404    0.00815566    0.00118905
     atom    4 type  1   force =     0.00000010   -0.01599557    0.00116542

     Total force =     0.028175     Total SCF correction =     0.000371

     Entering FIRE :       iteration =     8

     FIRE Parameters: P = 0.00000362, dt = 24.20, alpha = 0.196 nsteppos =   7 at step  8


ATOMIC_POSITIONS (angstrom)
N            -0.0000001589        0.0005505640        2.5988817358
H             0.8770679684        0.5066166888        2.6133406134
H            -0.8770670647        0.5066172884        2.6133447893
H            -0.0000007448       -1.0123385612        2.6118190089



     Writing config-only to output data dir ./pwscf.save/
     NEW-OLD atomic charge density approx. for the potential

     Check: negative core charge=   -0.000004

     negative rho (up, down):  1.985E-03 0.000E+00

     total cpu time spent up to now is       17.6 secs

     Self-consistent Calculation

     iteration #  1     ecut=    40.00 Ry     beta= 0.70
     Davidson diagonalization with overlap
     ethr =  1.00E-06,  avg # of iterations =  4.0

     negative rho (up, down):  1.958E-03 0.000E+00

     total cpu time spent up to now is       18.0 secs

     total energy              =     -31.77387213 Ry
     estimated scf accuracy    <       0.00114211 Ry

     iteration #  2     ecut=    40.00 Ry     beta= 0.70
     Davidson diagonalization with overlap
     ethr =  1.43E-05,  avg # of iterations =  2.0

     negative rho (up, down):  2.009E-03 0.000E+00

     total cpu time spent up to now is       18.4 secs

     total energy              =     -31.77417209 Ry
     estimated scf accuracy    <       0.00091958 Ry

     iteration #  3     ecut=    40.00 Ry     beta= 0.70
     Davidson diagonalization with overlap
     ethr =  1.15E-05,  avg # of iterations =  2.0

     negative rho (up, down):  2.035E-03 0.000E+00

     total cpu time spent up to now is       18.6 secs

     total energy              =     -31.77434194 Ry
     estimated scf accuracy    <       0.00000324 Ry

     iteration #  4     ecut=    40.00 Ry     beta= 0.70
     Davidson diagonalization with overlap
     ethr =  4.05E-08,  avg # of iterations =  2.0

     negative rho (up, down):  2.032E-03 0.000E+00

     total cpu time spent up to now is       19.0 secs

     total energy              =     -31.77434318 Ry
     estimated scf accuracy    <       0.00000109 Ry

     iteration #  5     ecut=    40.00 Ry     beta= 0.70
     Davidson diagonalization with overlap
     ethr =  1.37E-08,  avg # of iterations =  1.0

     negative rho (up, down):  2.031E-03 0.000E+00

     total cpu time spent up to now is       19.3 secs

     End of self-consistent calculation

          k = 0.0000 0.0000 0.0000 (  3625 PWs)   bands (ev):

   -20.0447 -11.1170 -11.1116  -4.7500  -1.0493   2.0079   2.3216   2.7025

     the Fermi energy is    -2.8996 ev

!    total energy              =     -31.77434320 Ry
     estimated scf accuracy    <       0.00000010 Ry
     smearing contrib. (-TS)   =      -0.00003455 Ry
     internal energy E=F+TS    =     -31.77430865 Ry

     convergence has been achieved in   5 iterations

     negative rho (up, down):  2.031E-03 0.000E+00

     Forces acting on atoms (cartesian axes, Ry/au):

     atom    1 type  2   force =     0.00000104   -0.00039894    0.00000000
     atom    2 type  1   force =    -0.01270787   -0.00733436    0.00089068
     atom    3 type  1   force =     0.01270677   -0.00733373    0.00089065
     atom    4 type  1   force =     0.00000005    0.01506703    0.00091525

     Total force =     0.025693     Total SCF correction =     0.000149

     Entering FIRE :       iteration =     9

     FIRE Parameters: P = -.00000487, dt = 12.10, alpha = 0.200 nsteppos =   0 at step  9


ATOMIC_POSITIONS (angstrom)
N            -0.0000000330        0.0004971028        2.5988817358
H             0.8686640133        0.5017767903        2.6129603725
H            -0.8686631874        0.5017773669        2.6129645049
H            -0.0000007928       -1.0026052799        2.6114516445



     Writing config-only to output data dir ./pwscf.save/
     NEW-OLD atomic charge density approx. for the potential

     Check: negative core charge=   -0.000004

     negative rho (up, down):  2.122E-03 0.000E+00

     total cpu time spent up to now is       19.7 secs

     Self-consistent Calculation

     iteration #  1     ecut=    40.00 Ry     beta= 0.70
     Davidson diagonalization with overlap
     ethr =  1.00E-06,  avg # of iterations =  4.0

     negative rho (up, down):  2.128E-03 0.000E+00

     total cpu time spent up to now is       20.1 secs

     total energy              =     -31.77451913 Ry
     estimated scf accuracy    <       0.00040351 Ry

     iteration #  2     ecut=    40.00 Ry     beta= 0.70
     Davidson diagonalization with overlap
     ethr =  5.04E-06,  avg # of iterations =  2.0

     negative rho (up, down):  2.095E-03 0.000E+00

     total cpu time spent up to now is       20.3 secs

     total energy              =     -31.77462615 Ry
     estimated scf accuracy    <       0.00031531 Ry

     iteration #  3     ecut=    40.00 Ry     beta= 0.70
     Davidson diagonalization with overlap
     ethr =  3.94E-06,  avg # of iterations =  2.0

     negative rho (up, down):  2.081E-03 0.000E+00

     total cpu time spent up to now is       20.7 secs

     total energy              =     -31.77468481 Ry
     estimated scf accuracy    <       0.00000102 Ry

     iteration #  4     ecut=    40.00 Ry     beta= 0.70
     Davidson diagonalization with overlap
     ethr =  1.28E-08,  avg # of iterations =  2.0

     negative rho (up, down):  2.083E-03 0.000E+00

     total cpu time spent up to now is       21.0 secs

     End of self-consistent calculation

          k = 0.0000 0.0000 0.0000 (  3625 PWs)   bands (ev):

   -20.1451 -11.1952 -11.1909  -4.7709  -1.0296   2.0390   2.3527   2.7131

     the Fermi energy is    -2.9003 ev

!    total energy              =     -31.77468512 Ry
     estimated scf accuracy    <       0.00000033 Ry
     smearing contrib. (-TS)   =      -0.00002935 Ry
     internal energy E=F+TS    =     -31.77465577 Ry

     convergence has been achieved in   4 iterations

     negative rho (up, down):  2.083E-03 0.000E+00

     Forces acting on atoms (cartesian axes, Ry/au):

     atom    1 type  2   force =     0.00000055   -0.00019055   -0.00000000
     atom    2 type  1   force =     0.00219790    0.00125348    0.00106845
     atom    3 type  1   force =    -0.00219853    0.00125389    0.00106846
     atom    4 type  1   force =     0.00000009   -0.00231681    0.00106887

     Total force =     0.004652     Total SCF correction =     0.000280

     Entering FIRE :       iteration =    10

     FIRE Parameters: P = -.00000012, dt =  6.05, alpha = 0.200 nsteppos =   0 at step 10


ATOMIC_POSITIONS (angstrom)
N            -0.0000000656        0.0005100094        2.5988817358
H             0.8692508338        0.5021151547        2.6129452223
H            -0.8692499749        0.5021157131        2.6129493561
H            -0.0000007933       -1.0032948973        2.6114354591



     Writing config-only to output data dir ./pwscf.save/
     NEW-OLD atomic charge density approx. for the potential

     Check: negative core charge=   -0.000004

     negative rho (up, down):  2.077E-03 0.000E+00

     total cpu time spent up to now is       21.5 secs

     Self-consistent Calculation

     iteration #  1     ecut=    40.00 Ry     beta= 0.70
     Davidson diagonalization with overlap
     ethr =  1.00E-06,  avg # of iterations =  2.0

     Threshold (ethr) on eigenvalues was too large:
     Diagonalizing with lowered threshold

     Davidson diagonalization with overlap
     ethr =  5.69E-08,  avg # of iterations =  1.0

     negative rho (up, down):  2.075E-03 0.000E+00

     total cpu time spent up to now is       21.9 secs

     total energy              =     -31.77469040 Ry
     estimated scf accuracy    <       0.00000496 Ry

     iteration #  2     ecut=    40.00 Ry     beta= 0.70
     Davidson diagonalization with overlap
     ethr =  6.20E-08,  avg # of iterations =  2.0

     negative rho (up, down):  2.078E-03 0.000E+00

     total cpu time spent up to now is       22.2 secs

     total energy              =     -31.77469178 Ry
     estimated scf accuracy    <       0.00000399 Ry

     iteration #  3     ecut=    40.00 Ry     beta= 0.70
     Davidson diagonalization with overlap
     ethr =  4.99E-08,  avg # of iterations =  2.0

     negative rho (up, down):  2.079E-03 0.000E+00

     total cpu time spent up to now is       22.6 secs

     End of self-consistent calculation

          k = 0.0000 0.0000 0.0000 (  3625 PWs)   bands (ev):

   -20.1365 -11.1888 -11.1843  -4.7675  -1.0311   2.0364   2.3503   2.7123

     the Fermi energy is    -2.8993 ev

!    total energy              =     -31.77469251 Ry
     estimated scf accuracy    <          5.8E-09 Ry
     smearing contrib. (-TS)   =      -0.00002994 Ry
     internal energy E=F+TS    =     -31.77466257 Ry

     convergence has been achieved in   3 iterations

     negative rho (up, down):  2.079E-03 0.000E+00

     Forces acting on atoms (cartesian axes, Ry/au):

     atom    1 type  2   force =    -0.00021478   -0.01262848   -0.00609849
     atom    2 type  1   force =     0.00105362   -0.00030834    0.01024485
     atom    3 type  1   force =     0.00787982   -0.00204192   -0.01200311
     atom    4 type  1   force =     0.00122139    0.00161226   -0.00137886

     Total force =     0.022786     Total SCF correction =     0.000016

     Entering FIRE :       iteration =    11

     FIRE Parameters: P = 0.00000000, dt = 20.00, alpha = 0.000 nsteppos =   1 at step 11


ATOMIC_POSITIONS (angstrom)
N            -0.0000499450       -0.0024227878        2.5974654429
H             0.8694955238        0.5020435467        2.6153244545
H            -0.8674199897        0.5016415044        2.6101617913
H             0.0002828593       -1.0029204721        2.6111152382



     Writing config-only to output data dir ./pwscf.save/
     NEW-OLD atomic charge density approx. for the potential

     Check: negative core charge=   -0.000004

     negative rho (up, down):  2.083E-03 0.000E+00

     total cpu time spent up to now is       23.1 secs

     Self-consistent Calculation

     iteration #  1     ecut=    40.00 Ry     beta= 0.70
     Davidson diagonalization with overlap
     ethr =  1.00E-06,  avg # of iterations =  3.0

     negative rho (up, down):  2.085E-03 0.000E+00

     total cpu time spent up to now is       23.4 secs

     total energy              =     -31.77466456 Ry
     estimated scf accuracy    <       0.00001161 Ry

     iteration #  2     ecut=    40.00 Ry     beta= 0.70
     Davidson diagonalization with overlap
     ethr =  1.45E-07,  avg # of iterations =  2.0

     negative rho (up, down):  2.082E-03 0.000E+00

     total cpu time spent up to now is       23.7 secs

     total energy              =     -31.77466822 Ry
     estimated scf accuracy    <       0.00000176 Ry

     iteration #  3     ecut=    40.00 Ry     beta= 0.70
     Davidson diagonalization with overlap
     ethr =  2.20E-08,  avg # of iterations =  2.0

     negative rho (up, down):  2.084E-03 0.000E+00

     total cpu time spent up to now is       23.9 secs

     End of self-consistent calculation

          k = 0.0000 0.0000 0.0000 (  3625 PWs)   bands (ev):

   -20.1461 -11.2147 -11.1732  -4.7714  -1.0300   2.0431   2.3512   2.7122

     the Fermi energy is    -2.9007 ev

!    total energy              =     -31.77466853 Ry
     estimated scf accuracy    <       0.00000042 Ry
     smearing contrib. (-TS)   =      -0.00002933 Ry
     internal energy E=F+TS    =     -31.77463920 Ry

     convergence has been achieved in   3 iterations

     negative rho (up, down):  2.084E-03 0.000E+00

     Forces acting on atoms (cartesian axes, Ry/au):

     atom    1 type  2   force =    -0.00777151    0.00045886    0.01009754
     atom    2 type  1   force =     0.00402367    0.00546425   -0.01589482
     atom    3 type  1   force =    -0.00992798    0.00376762    0.01837608
     atom    4 type  1   force =    -0.00170642    0.01099388    0.00171327

     Total force =     0.032224     Total SCF correction =     0.000325

     Entering FIRE :       iteration =    12

     FIRE Parameters: P = 0.00000000, dt = 20.00, alpha = 0.000 nsteppos =   1 at step 12


ATOMIC_POSITIONS (angstrom)
N            -0.0018547746       -0.0023162231        2.5998104640
H             0.8704299678        0.5033125456        2.6116330921
H            -0.8697256316        0.5025164840        2.6144293939
H            -0.0001134333       -1.0003672883        2.6115131231



     Writing config-only to output data dir ./pwscf.save/
     NEW-OLD atomic charge density approx. for the potential

     Check: negative core charge=   -0.000004

     negative rho (up, down):  2.079E-03 0.000E+00

     total cpu time spent up to now is       24.5 secs

     Self-consistent Calculation

     iteration #  1     ecut=    40.00 Ry     beta= 0.70
     Davidson diagonalization with overlap
     ethr =  1.00E-06,  avg # of iterations =  3.0

     negative rho (up, down):  2.074E-03 0.000E+00

     total cpu time spent up to now is       24.8 secs

     total energy              =     -31.77458740 Ry
     estimated scf accuracy    <       0.00001556 Ry

     iteration #  2     ecut=    40.00 Ry     beta= 0.70
     Davidson diagonalization with overlap
     ethr =  1.94E-07,  avg # of iterations =  2.0

     negative rho (up, down):  2.077E-03 0.000E+00

     total cpu time spent up to now is       25.1 secs

     total energy              =     -31.77458975 Ry
     estimated scf accuracy    <       0.00000310 Ry

     iteration #  3     ecut=    40.00 Ry     beta= 0.70
     Davidson diagonalization with overlap
     ethr =  3.88E-08,  avg # of iterations =  2.0

     negative rho (up, down):  2.076E-03 0.000E+00

     total cpu time spent up to now is       25.4 secs

     End of self-consistent calculation

          k = 0.0000 0.0000 0.0000 (  3625 PWs)   bands (ev):

   -20.1360 -11.2196 -11.1524  -4.7647  -1.0304   2.0441   2.3509   2.7114

     the Fermi energy is    -2.8976 ev

!    total energy              =     -31.77459041 Ry
     estimated scf accuracy    <       0.00000057 Ry
     smearing contrib. (-TS)   =      -0.00003020 Ry
     internal energy E=F+TS    =     -31.77456021 Ry

     convergence has been achieved in   3 iterations

     negative rho (up, down):  2.076E-03 0.000E+00

     Forces acting on atoms (cartesian axes, Ry/au):

     atom    1 type  2   force =     0.00796722    0.01110212   -0.01080396
     atom    2 type  1   force =     0.00974000   -0.00453008    0.00960700
     atom    3 type  1   force =    -0.01188569    0.00083698   -0.00747217
     atom    4 type  1   force =     0.00204290   -0.01798439    0.00136206

     Total force =     0.032224     Total SCF correction =     0.000393

     Entering FIRE :       iteration =    13

     FIRE Parameters: P = 0.00000000, dt = 20.00, alpha = 0.000 nsteppos =   1 at step 13


ATOMIC_POSITIONS (angstrom)
N            -0.0000044927        0.0002620972        2.5973013860
H             0.8726919535        0.5022604946        2.6138641913
H            -0.8724859254        0.5027108622        2.6126940813
H             0.0003610040       -1.0045439251        2.6118294430



     Writing config-only to output data dir ./pwscf.save/
     NEW-OLD atomic charge density approx. for the potential

     Check: negative core charge=   -0.000004

     negative rho (up, down):  2.054E-03 0.000E+00

     total cpu time spent up to now is       25.9 secs

     Self-consistent Calculation

     iteration #  1     ecut=    40.00 Ry     beta= 0.70
     Davidson diagonalization with overlap
     ethr =  1.00E-06,  avg # of iterations =  3.0

     negative rho (up, down):  2.056E-03 0.000E+00

     total cpu time spent up to now is       26.2 secs

     total energy              =     -31.77467428 Ry
     estimated scf accuracy    <       0.00003874 Ry

     iteration #  2     ecut=    40.00 Ry     beta= 0.70
     Davidson diagonalization with overlap
     ethr =  4.84E-07,  avg # of iterations =  2.0

     negative rho (up, down):  2.065E-03 0.000E+00

     total cpu time spent up to now is       26.6 secs

     total energy              =     -31.77468123 Ry
     estimated scf accuracy    <       0.00001319 Ry

     iteration #  3     ecut=    40.00 Ry     beta= 0.70
     Davidson diagonalization with overlap
     ethr =  1.65E-07,  avg # of iterations =  2.0

     negative rho (up, down):  2.066E-03 0.000E+00

     total cpu time spent up to now is       26.9 secs

     End of self-consistent calculation

          k = 0.0000 0.0000 0.0000 (  3625 PWs)   bands (ev):

   -20.1077 -11.1664 -11.1604  -4.7597  -1.0364   2.0279   2.3428   2.7090

     the Fermi energy is    -2.8980 ev

!    total energy              =     -31.77468433 Ry
     estimated scf accuracy    <       0.00000088 Ry
     smearing contrib. (-TS)   =      -0.00003155 Ry
     internal energy E=F+TS    =     -31.77465278 Ry

     convergence has been achieved in   3 iterations

     negative rho (up, down):  2.066E-03 0.000E+00

     Forces acting on atoms (cartesian axes, Ry/au):

     atom    1 type  2   force =     0.00636566   -0.00659133    0.01758244
     atom    2 type  1   force =    -0.01687074    0.00789452   -0.00664282
     atom    3 type  1   force =     0.01177558    0.00614664   -0.00306386
     atom    4 type  1   force =    -0.00333849   -0.00466898   -0.00595432

     Total force =     0.032224     Total SCF correction =     0.000584

     Entering FIRE :       iteration =    14

     FIRE Parameters: P = 0.00000000, dt = 20.00, alpha = 0.000 nsteppos =   1 at step 14


ATOMIC_POSITIONS (angstrom)
N             0.0014738468       -0.0012686520        2.6013846745
H             0.8687739462        0.5040938931        2.6123214843
H            -0.8697512032        0.5041383383        2.6119825412
H            -0.0004143155       -1.0056282342        2.6104466298



     Writing config-only to output data dir ./pwscf.save/
     NEW-OLD atomic charge density approx. for the potential

     Check: negative core charge=   -0.000004

     negative rho (up, down):  2.070E-03 0.000E+00

     total cpu time spent up to now is       27.3 secs

     Self-consistent Calculation

     iteration #  1     ecut=    40.00 Ry     beta= 0.70
     Davidson diagonalization with overlap
     ethr =  1.00E-06,  avg # of iterations =  3.0

     negative rho (up, down):  2.074E-03 0.000E+00

     total cpu time spent up to now is       27.7 secs

     total energy              =     -31.77464787 Ry
     estimated scf accuracy    <       0.00003087 Ry

     iteration #  2     ecut=    40.00 Ry     beta= 0.70
     Davidson diagonalization with overlap
     ethr =  3.86E-07,  avg # of iterations =  2.0

     negative rho (up, down):  2.067E-03 0.000E+00

     total cpu time spent up to now is       28.1 secs

     total energy              =     -31.77465390 Ry
     estimated scf accuracy    <       0.00001057 Ry

     iteration #  3     ecut=    40.00 Ry     beta= 0.70
     Davidson diagonalization with overlap
     ethr =  1.32E-07,  avg # of iterations =  2.0

     negative rho (up, down):  2.068E-03 0.000E+00

     total cpu time spent up to now is       28.3 secs

     End of self-consistent calculation

          k = 0.0000 0.0000 0.0000 (  3625 PWs)   bands (ev):

   -20.1252 -11.2001 -11.1563  -4.7675  -1.0336   2.0364   2.3449   2.7110

     the Fermi energy is    -2.9006 ev

!    total energy              =     -31.77465639 Ry
     estimated scf accuracy    <       0.00000066 Ry
     smearing contrib. (-TS)   =      -0.00003024 Ry
     internal energy E=F+TS    =     -31.77462615 Ry

     convergence has been achieved in   3 iterations

     negative rho (up, down):  2.068E-03 0.000E+00

     Forces acting on atoms (cartesian axes, Ry/au):

     atom    1 type  2   force =     0.00825444    0.00190178   -0.01792017
     atom    2 type  1   force =    -0.00624514   -0.01171128    0.00345284
     atom    3 type  1   force =    -0.00463429   -0.00450578    0.00887593
     atom    4 type  1   force =     0.00076611    0.01681491    0.00731854

     Total force =     0.032224     Total SCF correction =     0.000598

     Entering FIRE :       iteration =    15

     FIRE Parameters: P = 0.00000000, dt = 20.00, alpha = 0.000 nsteppos =   1 at step 15


ATOMIC_POSITIONS (angstrom)
N             0.0033908326       -0.0008269884        2.5972229507
H             0.8673235955        0.5013741034        2.6131233603
H            -0.8708274567        0.5030919311        2.6140438586
H            -0.0002363956       -1.0017231927        2.6121462637



     Writing config-only to output data dir ./pwscf.save/
     NEW-OLD atomic charge density approx. for the potential

     Check: negative core charge=   -0.000004

     negative rho (up, down):  2.088E-03 0.000E+00

     total cpu time spent up to now is       28.8 secs

     Self-consistent Calculation

     iteration #  1     ecut=    40.00 Ry     beta= 0.70
     Davidson diagonalization with overlap
     ethr =  1.00E-06,  avg # of iterations =  3.0

     negative rho (up, down):  2.089E-03 0.000E+00

     total cpu time spent up to now is       29.1 secs

     total energy              =     -31.77459532 Ry
     estimated scf accuracy    <       0.00003231 Ry

     iteration #  2     ecut=    40.00 Ry     beta= 0.70
     Davidson diagonalization with overlap
     ethr =  4.04E-07,  avg # of iterations =  2.0

     negative rho (up, down):  2.083E-03 0.000E+00

     total cpu time spent up to now is       29.4 secs

     total energy              =     -31.77460081 Ry
     estimated scf accuracy    <       0.00000532 Ry

     iteration #  3     ecut=    40.00 Ry     beta= 0.70
     Davidson diagonalization with overlap
     ethr =  6.65E-08,  avg # of iterations =  2.0

     negative rho (up, down):  2.084E-03 0.000E+00

     total cpu time spent up to now is       29.7 secs

     total energy              =     -31.77460220 Ry
     estimated scf accuracy    <       0.00000101 Ry

     iteration #  4     ecut=    40.00 Ry     beta= 0.70
     Davidson diagonalization with overlap
     ethr =  1.26E-08,  avg # of iterations =  2.0

     negative rho (up, down):  2.084E-03 0.000E+00

     total cpu time spent up to now is       30.0 secs

     End of self-consistent calculation

          k = 0.0000 0.0000 0.0000 (  3625 PWs)   bands (ev):

   -20.1423 -11.2274 -11.1537  -4.7684  -1.0300   2.0413   2.3514   2.7125

     the Fermi energy is    -2.8992 ev

!    total energy              =     -31.77460240 Ry
     estimated scf accuracy    <       0.00000002 Ry
     smearing contrib. (-TS)   =      -0.00002969 Ry
     internal energy E=F+TS    =     -31.77457271 Ry

     convergence has been achieved in   4 iterations

     negative rho (up, down):  2.084E-03 0.000E+00

     Forces acting on atoms (cartesian axes, Ry/au):

     atom    1 type  2   force =    -0.00974661    0.00740657    0.01865501
     atom    2 type  1   force =     0.01155845   -0.00683108   -0.00135780
     atom    3 type  1   force =     0.00023558   -0.00905571   -0.01389875
     atom    4 type  1   force =     0.00333461    0.00124297   -0.00839905

     Total force =     0.032224     Total SCF correction =     0.000113

     Entering FIRE :       iteration =    16

     FIRE Parameters: P = 0.00000000, dt = 20.00, alpha = 0.000 nsteppos =   1 at step 16


ATOMIC_POSITIONS (angstrom)
N             0.0011273114        0.0008930888        2.6015553298
H             0.8700078936        0.4997876754        2.6128080292
H            -0.8707727474        0.5009888627        2.6108160577
H             0.0005380225       -1.0014345296        2.6101956945



     Writing config-only to output data dir ./pwscf.save/
     NEW-OLD atomic charge density approx. for the potential

     Check: negative core charge=   -0.000004

     negative rho (up, down):  2.082E-03 0.000E+00

     total cpu time spent up to now is       30.5 secs

     Self-consistent Calculation

     iteration #  1     ecut=    40.00 Ry     beta= 0.70
     Davidson diagonalization with overlap
     ethr =  1.00E-06,  avg # of iterations =  3.0

     negative rho (up, down):  2.079E-03 0.000E+00

     total cpu time spent up to now is       30.8 secs

     total energy              =     -31.77464760 Ry
     estimated scf accuracy    <       0.00002804 Ry

     iteration #  2     ecut=    40.00 Ry     beta= 0.70
     Davidson diagonalization with overlap
     ethr =  3.51E-07,  avg # of iterations =  2.0

     negative rho (up, down):  2.079E-03 0.000E+00

     total cpu time spent up to now is       31.1 secs

     End of self-consistent calculation

          k = 0.0000 0.0000 0.0000 (  3625 PWs)   bands (ev):

   -20.1414 -11.2045 -11.1773  -4.7673  -1.0297   2.0364   2.3538   2.7127

     the Fermi energy is    -2.8985 ev

!    total energy              =     -31.77465257 Ry
     estimated scf accuracy    <       0.00000081 Ry
     smearing contrib. (-TS)   =      -0.00002979 Ry
     internal energy E=F+TS    =     -31.77462278 Ry

     convergence has been achieved in   2 iterations

     negative rho (up, down):  2.079E-03 0.000E+00

     Forces acting on atoms (cartesian axes, Ry/au):

     atom    1 type  2   force =    -0.00479311    0.00358590   -0.00896638
     atom    2 type  1   force =    -0.00688422    0.02258027    0.01377664
     atom    3 type  1   force =     0.00101420   -0.00061913    0.01123727
     atom    4 type  1   force =    -0.00633690   -0.00268697   -0.00025232

     Total force =     0.032224     Total SCF correction =     0.001755

     Entering FIRE :       iteration =    17

     FIRE Parameters: P = 0.00000000, dt = 20.00, alpha = 0.000 nsteppos =   1 at step 17


ATOMIC_POSITIONS (angstrom)
N             0.0000141761        0.0017258655        2.5994730069
H             0.8684091255        0.5050316449        2.6160074722
H            -0.8705372125        0.5008450774        2.6134257648
H            -0.0009336395       -1.0020585427        2.6101370970



     Writing config-only to output data dir ./pwscf.save/
     NEW-OLD atomic charge density approx. for the potential

     Check: negative core charge=   -0.000004

     negative rho (up, down):  2.075E-03 0.000E+00

     total cpu time spent up to now is       31.6 secs

     Self-consistent Calculation

     iteration #  1     ecut=    40.00 Ry     beta= 0.70
     Davidson diagonalization with overlap
     ethr =  1.00E-06,  avg # of iterations =  3.0

     negative rho (up, down):  2.076E-03 0.000E+00

     total cpu time spent up to now is       31.9 secs

     total energy              =     -31.77468840 Ry
     estimated scf accuracy    <       0.00001474 Ry

     iteration #  2     ecut=    40.00 Ry     beta= 0.70
     Davidson diagonalization with overlap
     ethr =  1.84E-07,  avg # of iterations =  2.0

     negative rho (up, down):  2.079E-03 0.000E+00

     total cpu time spent up to now is       32.2 secs

     total energy              =     -31.77469089 Ry
     estimated scf accuracy    <       0.00000112 Ry

     iteration #  3     ecut=    40.00 Ry     beta= 0.70
     Davidson diagonalization with overlap
     ethr =  1.40E-08,  avg # of iterations =  2.0

     negative rho (up, down):  2.078E-03 0.000E+00

     total cpu time spent up to now is       32.4 secs

     End of self-consistent calculation

          k = 0.0000 0.0000 0.0000 (  3625 PWs)   bands (ev):

   -20.1342 -11.1939 -11.1753  -4.7651  -1.0308   2.0365   2.3508   2.7126

     the Fermi energy is    -2.8980 ev

!    total energy              =     -31.77469104 Ry
     estimated scf accuracy    <       0.00000032 Ry
     smearing contrib. (-TS)   =      -0.00003019 Ry
     internal energy E=F+TS    =     -31.77466086 Ry

     convergence has been achieved in   3 iterations

     negative rho (up, down):  2.078E-03 0.000E+00

     Forces acting on atoms (cartesian axes, Ry/au):

     atom    1 type  2   force =    -0.00006132   -0.00523542   -0.00254598
     atom    2 type  1   force =     0.00362435   -0.01255826   -0.01318589
     atom    3 type  1   force =     0.00554278    0.00547129   -0.00205139
     atom    4 type  1   force =     0.00401679   -0.00532368    0.00559068

     Total force =     0.022786     Total SCF correction =     0.000294

     Entering FIRE :       iteration =    18

     FIRE Parameters: P = 0.00000000, dt = 20.00, alpha = 0.000 nsteppos =   1 at step 18


ATOMIC_POSITIONS (angstrom)
N            -0.0000000656        0.0005100094        2.5988817358
H             0.8692508338        0.5021151547        2.6129452223
H            -0.8692499749        0.5021157131        2.6129493561
H            -0.0000007933       -1.0032948973        2.6114354591



     Writing config-only to output data dir ./pwscf.save/
     NEW-OLD atomic charge density approx. for the potential

     Check: negative core charge=   -0.000004

     negative rho (up, down):  2.077E-03 0.000E+00

     total cpu time spent up to now is       33.0 secs

     Self-consistent Calculation

     iteration #  1     ecut=    40.00 Ry     beta= 0.70
     Davidson diagonalization with overlap
     ethr =  1.00E-06,  avg # of iterations =  2.0

     Threshold (ethr) on eigenvalues was too large:
     Diagonalizing with lowered threshold

     Davidson diagonalization with overlap
     ethr =  4.00E-08,  avg # of iterations =  2.0

     negative rho (up, down):  2.080E-03 0.000E+00

     total cpu time spent up to now is       33.5 secs

     total energy              =     -31.77469178 Ry
     estimated scf accuracy    <       0.00000386 Ry

     iteration #  2     ecut=    40.00 Ry     beta= 0.70
     Davidson diagonalization with overlap
     ethr =  4.82E-08,  avg # of iterations =  2.0

     negative rho (up, down):  2.077E-03 0.000E+00

     total cpu time spent up to now is       33.9 secs

     End of self-consistent calculation

          k = 0.0000 0.0000 0.0000 (  3625 PWs)   bands (ev):

   -20.1327 -11.1859 -11.1809  -4.7636  -1.0306   2.0369   2.3508   2.7131

     the Fermi energy is    -2.8971 ev

!    total energy              =     -31.77469215 Ry
     estimated scf accuracy    <       0.00000089 Ry
     smearing contrib. (-TS)   =      -0.00003035 Ry
     internal energy E=F+TS    =     -31.77466180 Ry

     convergence has been achieved in   2 iterations

     negative rho (up, down):  2.077E-03 0.000E+00

     Forces acting on atoms (cartesian axes, Ry/au):

     atom    1 type  2   force =    -0.00016415    0.00007024    0.04762027
     atom    2 type  1   force =     0.00098877   -0.00047797   -0.01539649
     atom    3 type  1   force =    -0.00083356    0.00025276   -0.01584599
     atom    4 type  1   force =     0.00056929   -0.00059852   -0.01689841

     Total force =     0.055173     Total SCF correction =     0.000616

     Entering FIRE :       iteration =    19

     FIRE Parameters: P = 0.00000000, dt = 20.00, alpha = 0.000 nsteppos =   1 at step 19


ATOMIC_POSITIONS (angstrom)
N            -0.0000381873        0.0005263213        2.6099409135
H             0.8694804621        0.5020041523        2.6093695909
H            -0.8694435593        0.5021744135        2.6092693339
H             0.0001314163       -1.0034338964        2.6075110259



     Writing config-only to output data dir ./pwscf.save/
     NEW-OLD atomic charge density approx. for the potential

     Check: negative core charge=   -0.000004

     negative rho (up, down):  2.064E-03 0.000E+00

     total cpu time spent up to now is       34.4 secs

     Self-consistent Calculation

     iteration #  1     ecut=    40.00 Ry     beta= 0.70
     Davidson diagonalization with overlap
     ethr =  1.00E-06,  avg # of iterations =  4.0

     negative rho (up, down):  2.074E-03 0.000E+00

     total cpu time spent up to now is       34.7 secs

     total energy              =     -31.77462832 Ry
     estimated scf accuracy    <       0.00011354 Ry

     iteration #  2     ecut=    40.00 Ry     beta= 0.70
     Davidson diagonalization with overlap
     ethr =  1.42E-06,  avg # of iterations =  2.0

     negative rho (up, down):  2.075E-03 0.000E+00

     total cpu time spent up to now is       35.0 secs

     total energy              =     -31.77465169 Ry
     estimated scf accuracy    <       0.00000505 Ry

     iteration #  3     ecut=    40.00 Ry     beta= 0.70
     Davidson diagonalization with overlap
     ethr =  6.31E-08,  avg # of iterations =  2.0

     negative rho (up, down):  2.081E-03 0.000E+00

     total cpu time spent up to now is       35.4 secs

     End of self-consistent calculation

          k = 0.0000 0.0000 0.0000 (  3625 PWs)   bands (ev):

   -20.1389 -11.1929 -11.1866  -4.7701  -1.0313   2.0358   2.3501   2.7120

     the Fermi energy is    -2.9007 ev

!    total energy              =     -31.77465255 Ry
     estimated scf accuracy    <       0.00000083 Ry
     smearing contrib. (-TS)   =      -0.00002964 Ry
     internal energy E=F+TS    =     -31.77462292 Ry

     convergence has been achieved in   3 iterations

     negative rho (up, down):  2.081E-03 0.000E+00

     Forces acting on atoms (cartesian axes, Ry/au):

     atom    1 type  2   force =     0.00135586   -0.00058016   -0.39333667
     atom    2 type  1   force =    -0.00816709    0.00394797    0.12717283
     atom    3 type  1   force =     0.00688513   -0.00208777    0.13088565
     atom    4 type  1   force =    -0.00470224    0.00494372    0.13957850

     Total force =     0.455722     Total SCF correction =     0.000543

     Entering FIRE :       iteration =    20

     FIRE Parameters: P = 0.00000000, dt = 20.00, alpha = 0.000 nsteppos =   1 at step 20


ATOMIC_POSITIONS (angstrom)
N             0.0002766926        0.0003915877        2.5185936693
H             0.8675837644        0.5029210166        2.6389038011
H            -0.8678445795        0.5016895564        2.6396657973
H            -0.0009606158       -1.0022857837        2.6399262895



     Writing config-only to output data dir ./pwscf.save/
     NEW-OLD atomic charge density approx. for the potential

     Check: negative core charge=   -0.000004

     negative rho (up, down):  1.607E-03 0.000E+00

     total cpu time spent up to now is       35.8 secs

     Self-consistent Calculation

     iteration #  1     ecut=    40.00 Ry     beta= 0.70
     Davidson diagonalization with overlap
     ethr =  1.00E-06,  avg # of iterations =  7.0

     negative rho (up, down):  1.944E-03 0.000E+00

     total cpu time spent up to now is       36.3 secs

     total energy              =     -31.77597081 Ry
     estimated scf accuracy    <       0.00748880 Ry

     iteration #  2     ecut=    40.00 Ry     beta= 0.70
     Davidson diagonalization with overlap
     ethr =  9.36E-05,  avg # of iterations =  2.0

     negative rho (up, down):  2.134E-03 0.000E+00

     total cpu time spent up to now is       36.6 secs

     total energy              =     -31.77755188 Ry
     estimated scf accuracy    <       0.00025383 Ry

     iteration #  3     ecut=    40.00 Ry     beta= 0.70
     Davidson diagonalization with overlap
     ethr =  3.17E-06,  avg # of iterations =  2.0

     negative rho (up, down):  2.206E-03 0.000E+00

     total cpu time spent up to now is       36.9 secs

     total energy              =     -31.77759117 Ry
     estimated scf accuracy    <       0.00002447 Ry

     iteration #  4     ecut=    40.00 Ry     beta= 0.70
     Davidson diagonalization with overlap
     ethr =  3.06E-07,  avg # of iterations =  2.0

     negative rho (up, down):  2.241E-03 0.000E+00

     total cpu time spent up to now is       37.2 secs

     total energy              =     -31.77759570 Ry
     estimated scf accuracy    <       0.00000886 Ry

     iteration #  5     ecut=    40.00 Ry     beta= 0.70
     Davidson diagonalization with overlap
     ethr =  1.11E-07,  avg # of iterations =  2.0

     negative rho (up, down):  2.241E-03 0.000E+00

     total cpu time spent up to now is       37.5 secs

     End of self-consistent calculation

          k = 0.0000 0.0000 0.0000 (  3625 PWs)   bands (ev):

   -20.1377 -11.1085 -11.0961  -4.8338  -1.0458   2.0280   2.3409   2.7005

     the Fermi energy is    -2.9398 ev

!    total energy              =     -31.77759722 Ry
     estimated scf accuracy    <       0.00000006 Ry
     smearing contrib. (-TS)   =      -0.00002427 Ry
     internal energy E=F+TS    =     -31.77757295 Ry

     convergence has been achieved in   5 iterations

     negative rho (up, down):  2.241E-03 0.000E+00

     Forces acting on atoms (cartesian axes, Ry/au):

     atom    1 type  2   force =    -0.00076890   -0.00013224   -0.02321376
     atom    2 type  1   force =    -0.00570904   -0.00389509    0.00778882
     atom    3 type  1   force =     0.00606303   -0.00361934    0.00765957
     atom    4 type  1   force =     0.00041491    0.00764667    0.00776536

     Total force =     0.029587     Total SCF correction =     0.000628

     Entering FIRE :       iteration =    21

     FIRE Parameters: P = 0.00002253, dt = 20.00, alpha = 0.200 nsteppos =   2 at step 21


ATOMIC_POSITIONS (angstrom)
N            -0.0001971661        0.0001589786        2.4236045824
H             0.8606776850        0.4999779609        2.6698829821
H            -0.8608425452        0.4978854072        2.6712127770
H            -0.0014426081       -0.9941496607        2.6731881700



     Writing config-only to output data dir ./pwscf.save/
     NEW-OLD atomic charge density approx. for the potential

     Check: negative core charge=   -0.000004

     negative rho (up, down):  1.485E-03 0.000E+00

     total cpu time spent up to now is       38.0 secs

     Self-consistent Calculation

     iteration #  1     ecut=    40.00 Ry     beta= 0.70
     Davidson diagonalization with overlap
     ethr =  1.00E-06,  avg # of iterations =  8.0

     negative rho (up, down):  1.826E-03 0.000E+00

     total cpu time spent up to now is       38.4 secs

     total energy              =     -31.78249949 Ry
     estimated scf accuracy    <       0.00738950 Ry

     iteration #  2     ecut=    40.00 Ry     beta= 0.70
     Davidson diagonalization with overlap
     ethr =  9.24E-05,  avg # of iterations =  2.0

     negative rho (up, down):  2.063E-03 0.000E+00

     total cpu time spent up to now is       38.7 secs

     total energy              =     -31.78390247 Ry
     estimated scf accuracy    <       0.00096858 Ry

     iteration #  3     ecut=    40.00 Ry     beta= 0.70
     Davidson diagonalization with overlap
     ethr =  1.21E-05,  avg # of iterations =  2.0

     negative rho (up, down):  2.133E-03 0.000E+00

     total cpu time spent up to now is       39.0 secs

     total energy              =     -31.78415220 Ry
     estimated scf accuracy    <       0.00023554 Ry

     iteration #  4     ecut=    40.00 Ry     beta= 0.70
     Davidson diagonalization with overlap
     ethr =  2.94E-06,  avg # of iterations =  2.0

     negative rho (up, down):  2.206E-03 0.000E+00

     total cpu time spent up to now is       39.3 secs

     total energy              =     -31.78420115 Ry
     estimated scf accuracy    <       0.00000443 Ry

     iteration #  5     ecut=    40.00 Ry     beta= 0.70
     Davidson diagonalization with overlap
     ethr =  5.54E-08,  avg # of iterations =  2.0

     negative rho (up, down):  2.209E-03 0.000E+00

     total cpu time spent up to now is       39.6 secs

     End of self-consistent calculation

          k = 0.0000 0.0000 0.0000 (  3625 PWs)   bands (ev):

   -20.1720 -10.8760 -10.8631  -5.0636  -1.0703   2.0150   2.3705   2.6755

     the Fermi energy is    -3.0669 ev

!    total energy              =     -31.78420138 Ry
     estimated scf accuracy    <       0.00000020 Ry
     smearing contrib. (-TS)   =      -0.00001024 Ry
     internal energy E=F+TS    =     -31.78419114 Ry

     convergence has been achieved in   5 iterations

     negative rho (up, down):  2.209E-03 0.000E+00

     Forces acting on atoms (cartesian axes, Ry/au):

     atom    1 type  2   force =     0.00057099    0.00036240   -0.01934577
     atom    2 type  1   force =    -0.02131595   -0.01315267    0.00634377
     atom    3 type  1   force =     0.02020193   -0.01186852    0.00646829
     atom    4 type  1   force =     0.00054303    0.02465880    0.00653371

     Total force =     0.047793     Total SCF correction =     0.000456

     Entering FIRE :       iteration =    22

     FIRE Parameters: P = 0.00002384, dt = 20.00, alpha = 0.200 nsteppos =   3 at step 22


ATOMIC_POSITIONS (angstrom)
N            -0.0001894693        0.0002183750        2.3345087174
H             0.8407136452        0.4887140503        2.6989635199
H            -0.8415563652        0.4868024899        2.7008319046
H            -0.0014603620       -0.9709371818        2.7042235330



     Writing config-only to output data dir ./pwscf.save/
     NEW-OLD atomic charge density approx. for the potential

     Check: negative core charge=   -0.000004

     negative rho (up, down):  1.587E-03 0.000E+00

     total cpu time spent up to now is       40.1 secs

     Self-consistent Calculation

     iteration #  1     ecut=    40.00 Ry     beta= 0.70
     Davidson diagonalization with overlap
     ethr =  1.00E-06,  avg # of iterations =  8.0

     negative rho (up, down):  1.789E-03 0.000E+00

     total cpu time spent up to now is       40.4 secs

     total energy              =     -31.78797890 Ry
     estimated scf accuracy    <       0.00484562 Ry

     iteration #  2     ecut=    40.00 Ry     beta= 0.70
     Davidson diagonalization with overlap
     ethr =  6.06E-05,  avg # of iterations =  2.0

     negative rho (up, down):  1.955E-03 0.000E+00

     total cpu time spent up to now is       40.7 secs

     total energy              =     -31.78878209 Ry
     estimated scf accuracy    <       0.00106967 Ry

     iteration #  3     ecut=    40.00 Ry     beta= 0.70
     Davidson diagonalization with overlap
     ethr =  1.34E-05,  avg # of iterations =  2.0

     negative rho (up, down):  2.025E-03 0.000E+00

     total cpu time spent up to now is       41.0 secs

     total energy              =     -31.78906338 Ry
     estimated scf accuracy    <       0.00019019 Ry

     iteration #  4     ecut=    40.00 Ry     beta= 0.70
     Davidson diagonalization with overlap
     ethr =  2.38E-06,  avg # of iterations =  2.0

     negative rho (up, down):  2.073E-03 0.000E+00

     total cpu time spent up to now is       41.2 secs

     total energy              =     -31.78910052 Ry
     estimated scf accuracy    <       0.00000312 Ry

     iteration #  5     ecut=    40.00 Ry     beta= 0.70
     Davidson diagonalization with overlap
     ethr =  3.90E-08,  avg # of iterations =  2.0

     negative rho (up, down):  2.074E-03 0.000E+00

     total cpu time spent up to now is       41.5 secs

     End of self-consistent calculation

          k = 0.0000 0.0000 0.0000 (  3625 PWs)   bands (ev):

   -20.2946 -10.5906 -10.5753  -5.4433  -1.0884   2.0216   2.4465   2.6414

     the Fermi energy is    -3.2658 ev

!    total energy              =     -31.78910074 Ry
     estimated scf accuracy    <       0.00000012 Ry
     smearing contrib. (-TS)   =      -0.00000200 Ry
     internal energy E=F+TS    =     -31.78909873 Ry

     convergence has been achieved in   5 iterations

     negative rho (up, down):  2.074E-03 0.000E+00

     Forces acting on atoms (cartesian axes, Ry/au):

     atom    1 type  2   force =    -0.00077815   -0.00036752    0.01305353
     atom    2 type  1   force =    -0.02518481   -0.01527771   -0.00407805
     atom    3 type  1   force =     0.02537920   -0.01469684   -0.00446474
     atom    4 type  1   force =     0.00058376    0.03034207   -0.00451074

     Total force =     0.053636     Total SCF correction =     0.000337

     Entering FIRE :       iteration =    23

     FIRE Parameters: P = 0.00000376, dt = 20.00, alpha = 0.200 nsteppos =   4 at step 23


ATOMIC_POSITIONS (angstrom)
N            -0.0006530756        0.0000440229        2.2711123292
H             0.8095385602        0.4704799035        2.7197660664
H            -0.8108062169        0.4690638006        2.7218318810
H            -0.0011221525       -0.9340499559        2.7263287292



     Writing config-only to output data dir ./pwscf.save/
     NEW-OLD atomic charge density approx. for the potential

     Check: negative core charge=   -0.000004

     negative rho (up, down):  1.911E-03 0.000E+00

     total cpu time spent up to now is       42.0 secs

     Self-consistent Calculation

     iteration #  1     ecut=    40.00 Ry     beta= 0.70
     Davidson diagonalization with overlap
     ethr =  1.00E-06,  avg # of iterations =  8.0

     negative rho (up, down):  2.114E-03 0.000E+00

     total cpu time spent up to now is       42.4 secs

     total energy              =     -31.78917387 Ry
     estimated scf accuracy    <       0.00138310 Ry

     iteration #  2     ecut=    40.00 Ry     beta= 0.70
     Davidson diagonalization with overlap
     ethr =  1.73E-05,  avg # of iterations =  2.0

     negative rho (up, down):  2.254E-03 0.000E+00

     total cpu time spent up to now is       42.7 secs

     total energy              =     -31.78932266 Ry
     estimated scf accuracy    <       0.00010193 Ry

     iteration #  3     ecut=    40.00 Ry     beta= 0.70
     Davidson diagonalization with overlap
     ethr =  1.27E-06,  avg # of iterations =  5.0

     negative rho (up, down):  2.280E-03 0.000E+00

     total cpu time spent up to now is       43.0 secs

     total energy              =     -31.78933367 Ry
     estimated scf accuracy    <       0.00003716 Ry

     iteration #  4     ecut=    40.00 Ry     beta= 0.70
     Davidson diagonalization with overlap
     ethr =  4.64E-07,  avg # of iterations =  2.0

     negative rho (up, down):  2.298E-03 0.000E+00

     total cpu time spent up to now is       43.3 secs

     total energy              =     -31.78934290 Ry
     estimated scf accuracy    <       0.00000244 Ry

     iteration #  5     ecut=    40.00 Ry     beta= 0.70
     Davidson diagonalization with overlap
     ethr =  3.05E-08,  avg # of iterations =  2.0

     negative rho (up, down):  2.298E-03 0.000E+00

     total cpu time spent up to now is       43.6 secs

     End of self-consistent calculation

          k = 0.0000 0.0000 0.0000 (  3625 PWs)   bands (ev):

   -20.5380 -10.3892 -10.3785  -5.8309  -1.0898   2.0723   2.5185   2.6256

     the Fermi energy is    -3.4603 ev

!    total energy              =     -31.78934320 Ry
     estimated scf accuracy    <       0.00000004 Ry
     smearing contrib. (-TS)   =      -0.00000030 Ry
     internal energy E=F+TS    =     -31.78934290 Ry

     convergence has been achieved in   5 iterations

     negative rho (up, down):  2.298E-03 0.000E+00

     Forces acting on atoms (cartesian axes, Ry/au):

     atom    1 type  2   force =    -0.00058811   -0.00014229    0.04002719
     atom    2 type  1   force =    -0.01082363   -0.00666332   -0.01310469
     atom    3 type  1   force =     0.01103965   -0.00634915   -0.01345055
     atom    4 type  1   force =     0.00037210    0.01315476   -0.01347196

     Total force =     0.051319     Total SCF correction =     0.000215

     Entering FIRE :       iteration =    24

     FIRE Parameters: P = -.00001570, dt = 10.00, alpha = 0.200 nsteppos =   0 at step 24


ATOMIC_POSITIONS (angstrom)
N            -0.0004554178        0.0001229377        2.3051344700
H             0.8244976912        0.4792101100        2.7086039457
H            -0.8255403378        0.4775645189        2.7105509647
H            -0.0012696535       -0.9517298143        2.7144939600



     Writing config-only to output data dir ./pwscf.save/
     NEW-OLD atomic charge density approx. for the potential

     Check: negative core charge=   -0.000004

     negative rho (up, down):  2.344E-03 0.000E+00

     total cpu time spent up to now is       44.1 secs

     Self-consistent Calculation

     iteration #  1     ecut=    40.00 Ry     beta= 0.70
     Davidson diagonalization with overlap
     ethr =  1.00E-06,  avg # of iterations =  6.0

     negative rho (up, down):  2.240E-03 0.000E+00

     total cpu time spent up to now is       44.5 secs

     total energy              =     -31.79031686 Ry
     estimated scf accuracy    <       0.00046691 Ry

     iteration #  2     ecut=    40.00 Ry     beta= 0.70
     Davidson diagonalization with overlap
     ethr =  5.84E-06,  avg # of iterations =  2.0

     negative rho (up, down):  2.208E-03 0.000E+00

     total cpu time spent up to now is       44.8 secs

     total energy              =     -31.79037199 Ry
     estimated scf accuracy    <       0.00011981 Ry

     iteration #  3     ecut=    40.00 Ry     beta= 0.70
     Davidson diagonalization with overlap
     ethr =  1.50E-06,  avg # of iterations =  2.0

     negative rho (up, down):  2.204E-03 0.000E+00

     total cpu time spent up to now is       45.0 secs

     total energy              =     -31.79040288 Ry
     estimated scf accuracy    <       0.00002287 Ry

     iteration #  4     ecut=    40.00 Ry     beta= 0.70
     Davidson diagonalization with overlap
     ethr =  2.86E-07,  avg # of iterations =  2.0

     negative rho (up, down):  2.202E-03 0.000E+00

     total cpu time spent up to now is       45.3 secs

     End of self-consistent calculation

          k = 0.0000 0.0000 0.0000 (  3625 PWs)   bands (ev):

   -20.4342 -10.5207 -10.5083  -5.6176  -1.0832   2.0538   2.4877   2.6403

     the Fermi energy is    -3.3504 ev

!    total energy              =     -31.79040709 Ry
     estimated scf accuracy    <       0.00000024 Ry
     smearing contrib. (-TS)   =      -0.00000085 Ry
     internal energy E=F+TS    =     -31.79040624 Ry

     convergence has been achieved in   4 iterations

     negative rho (up, down):  2.202E-03 0.000E+00

     Forces acting on atoms (cartesian axes, Ry/au):

     atom    1 type  2   force =    -0.00058273   -0.00017977    0.02084861
     atom    2 type  1   force =    -0.01545669   -0.00948482   -0.00673729
     atom    3 type  1   force =     0.01557716   -0.00900737   -0.00705182
     atom    4 type  1   force =     0.00046226    0.01867196   -0.00705951

     Total force =     0.039768     Total SCF correction =     0.000335

     Entering FIRE :       iteration =    25

     FIRE Parameters: P = 0.00000166, dt = 10.00, alpha = 0.200 nsteppos =   1 at step 25


ATOMIC_POSITIONS (angstrom)
N            -0.0005248777        0.0001033275        2.3085014277
H             0.8228771132        0.4782146614        2.7075080177
H            -0.8239010138        0.4766181922        2.7094162249
H            -0.0012189397       -0.9497684289        2.7133576700



     Writing config-only to output data dir ./pwscf.save/
     NEW-OLD atomic charge density approx. for the potential

     Check: negative core charge=   -0.000004

     negative rho (up, down):  2.240E-03 0.000E+00

     total cpu time spent up to now is       45.8 secs

     Self-consistent Calculation

     iteration #  1     ecut=    40.00 Ry     beta= 0.70
     Davidson diagonalization with overlap
     ethr =  1.00E-06,  avg # of iterations =  3.0

     negative rho (up, down):  2.232E-03 0.000E+00

     total cpu time spent up to now is       46.1 secs

     total energy              =     -31.79071118 Ry
     estimated scf accuracy    <       0.00005985 Ry

     iteration #  2     ecut=    40.00 Ry     beta= 0.70
     Davidson diagonalization with overlap
     ethr =  7.48E-07,  avg # of iterations =  2.0

     negative rho (up, down):  2.220E-03 0.000E+00

     total cpu time spent up to now is       46.5 secs

     total energy              =     -31.79072590 Ry
     estimated scf accuracy    <       0.00004493 Ry

     iteration #  3     ecut=    40.00 Ry     beta= 0.70
     Davidson diagonalization with overlap
     ethr =  5.62E-07,  avg # of iterations =  2.0

     negative rho (up, down):  2.214E-03 0.000E+00

     total cpu time spent up to now is       46.8 secs

     End of self-consistent calculation

          k = 0.0000 0.0000 0.0000 (  3625 PWs)   bands (ev):

   -20.4631 -10.5522 -10.5410  -5.6071  -1.0762   2.0652   2.4934   2.6488

     the Fermi energy is    -3.3417 ev

!    total energy              =     -31.79073482 Ry
     estimated scf accuracy    <       0.00000015 Ry
     smearing contrib. (-TS)   =      -0.00000086 Ry
     internal energy E=F+TS    =     -31.79073396 Ry

     convergence has been achieved in   3 iterations

     negative rho (up, down):  2.214E-03 0.000E+00

     Forces acting on atoms (cartesian axes, Ry/au):

     atom    1 type  2   force =    -0.00039992   -0.00002909    0.01520558
     atom    2 type  1   force =    -0.01176686   -0.00732243   -0.00493597
     atom    3 type  1   force =     0.01173864   -0.00680126   -0.00515364
     atom    4 type  1   force =     0.00042814    0.01415279   -0.00511597

     Total force =     0.029750     Total SCF correction =     0.000299

     Entering FIRE :       iteration =    26

     FIRE Parameters: P = 0.00000233, dt = 10.00, alpha = 0.200 nsteppos =   2 at step 26


ATOMIC_POSITIONS (angstrom)
N            -0.0006173255        0.0000849564        2.3125972100
H             0.8204955445        0.4767430484        2.7061760936
H            -0.8215070499        0.4752339377        2.7080331793
H            -0.0011388871       -0.9468941902        2.7119768575



     Writing config-only to output data dir ./pwscf.save/
     NEW-OLD atomic charge density approx. for the potential

     Check: negative core charge=   -0.000004

     negative rho (up, down):  2.265E-03 0.000E+00

     total cpu time spent up to now is       47.2 secs

     Self-consistent Calculation

     iteration #  1     ecut=    40.00 Ry     beta= 0.70
     Davidson diagonalization with overlap
     ethr =  1.00E-06,  avg # of iterations =  3.0

     negative rho (up, down):  2.254E-03 0.000E+00

     total cpu time spent up to now is       47.6 secs

     total energy              =     -31.79098367 Ry
     estimated scf accuracy    <       0.00009814 Ry

     iteration #  2     ecut=    40.00 Ry     beta= 0.70
     Davidson diagonalization with overlap
     ethr =  1.23E-06,  avg # of iterations =  2.0

     negative rho (up, down):  2.239E-03 0.000E+00

     total cpu time spent up to now is       47.9 secs

     total energy              =     -31.79100768 Ry
     estimated scf accuracy    <       0.00006985 Ry

     iteration #  3     ecut=    40.00 Ry     beta= 0.70
     Davidson diagonalization with overlap
     ethr =  8.73E-07,  avg # of iterations =  2.0

     negative rho (up, down):  2.231E-03 0.000E+00

     total cpu time spent up to now is       48.2 secs

     End of self-consistent calculation

          k = 0.0000 0.0000 0.0000 (  3625 PWs)   bands (ev):

   -20.5023 -10.5923 -10.5828  -5.5937  -1.0680   2.0789   2.5002   2.6589

     the Fermi energy is    -3.3308 ev

!    total energy              =     -31.79102173 Ry
     estimated scf accuracy    <       0.00000028 Ry
     smearing contrib. (-TS)   =      -0.00000088 Ry
     internal energy E=F+TS    =     -31.79102085 Ry

     convergence has been achieved in   3 iterations

     negative rho (up, down):  2.231E-03 0.000E+00

     Forces acting on atoms (cartesian axes, Ry/au):

     atom    1 type  2   force =    -0.00016861    0.00013096    0.00747109
     atom    2 type  1   force =    -0.00653485   -0.00425087   -0.00245494
     atom    3 type  1   force =     0.00632433   -0.00368649   -0.00254941
     atom    4 type  1   force =     0.00037913    0.00780641   -0.00246674

     Total force =     0.015809     Total SCF correction =     0.000460

     Entering FIRE :       iteration =    27

     FIRE Parameters: P = 0.00000166, dt = 10.00, alpha = 0.200 nsteppos =   3 at step 27


ATOMIC_POSITIONS (angstrom)
N            -0.0007155278        0.0000890899        2.3169481154
H             0.8176506340        0.4749545182        2.7047575551
H            -0.8186824943        0.4735964480        2.7065601590
H            -0.0010203299       -0.9434723040        2.7105175109



     Writing config-only to output data dir ./pwscf.save/
     NEW-OLD atomic charge density approx. for the potential

     Check: negative core charge=   -0.000004

     negative rho (up, down):  2.289E-03 0.000E+00

     total cpu time spent up to now is       48.8 secs

     Self-consistent Calculation

     iteration #  1     ecut=    40.00 Ry     beta= 0.70
     Davidson diagonalization with overlap
     ethr =  1.00E-06,  avg # of iterations =  3.0

     negative rho (up, down):  2.277E-03 0.000E+00

     total cpu time spent up to now is       49.1 secs

     total energy              =     -31.79107800 Ry
     estimated scf accuracy    <       0.00012713 Ry

     iteration #  2     ecut=    40.00 Ry     beta= 0.70
     Davidson diagonalization with overlap
     ethr =  1.59E-06,  avg # of iterations =  2.0

     negative rho (up, down):  2.260E-03 0.000E+00

     total cpu time spent up to now is       49.4 secs

     total energy              =     -31.79111002 Ry
     estimated scf accuracy    <       0.00009317 Ry

     iteration #  3     ecut=    40.00 Ry     beta= 0.70
     Davidson diagonalization with overlap
     ethr =  1.16E-06,  avg # of iterations =  2.0

     negative rho (up, down):  2.252E-03 0.000E+00

     total cpu time spent up to now is       49.8 secs

     End of self-consistent calculation

          k = 0.0000 0.0000 0.0000 (  3625 PWs)   bands (ev):

   -20.5475 -10.6367 -10.6291  -5.5799  -1.0590   2.0941   2.5079   2.6695

     the Fermi energy is    -3.3194 ev

!    total energy              =     -31.79112841 Ry
     estimated scf accuracy    <       0.00000029 Ry
     smearing contrib. (-TS)   =      -0.00000090 Ry
     internal energy E=F+TS    =     -31.79112750 Ry

     convergence has been achieved in   3 iterations

     negative rho (up, down):  2.252E-03 0.000E+00

     Forces acting on atoms (cartesian axes, Ry/au):

     atom    1 type  2   force =     0.00003263    0.00028492   -0.00131571
     atom    2 type  1   force =    -0.00027069   -0.00055960    0.00038270
     atom    3 type  1   force =    -0.00007574    0.00000270    0.00039795
     atom    4 type  1   force =     0.00031380    0.00027199    0.00053505

     Total force =     0.001723     Total SCF correction =     0.000499
     SCF correction compared to forces is large: reduce conv_thr to get better values

     Entering FIRE :       iteration =    28

     FIRE Parameters: P = -.00000008, dt =  5.00, alpha = 0.200 nsteppos =   0 at step 28


ATOMIC_POSITIONS (angstrom)
N            -0.0006659531        0.0000911587        2.3147535654
H             0.8190691602        0.4758406607        2.7054723791
H            -0.8200958714        0.4744152321        2.7073024454
H            -0.0010750537       -0.9451792993        2.7112549504



     Writing config-only to output data dir ./pwscf.save/
     NEW-OLD atomic charge density approx. for the potential

     Check: negative core charge=   -0.000004

     negative rho (up, down):  2.221E-03 0.000E+00

     total cpu time spent up to now is       50.3 secs

     Self-consistent Calculation

     iteration #  1     ecut=    40.00 Ry     beta= 0.70
     Davidson diagonalization with overlap
     ethr =  1.00E-06,  avg # of iterations =  2.0

     negative rho (up, down):  2.228E-03 0.000E+00

     total cpu time spent up to now is       50.7 secs

     total energy              =     -31.79109095 Ry
     estimated scf accuracy    <       0.00003552 Ry

     iteration #  2     ecut=    40.00 Ry     beta= 0.70
     Davidson diagonalization with overlap
     ethr =  4.44E-07,  avg # of iterations =  2.0

     negative rho (up, down):  2.236E-03 0.000E+00

     total cpu time spent up to now is       51.0 secs

     total energy              =     -31.79109974 Ry
     estimated scf accuracy    <       0.00002483 Ry

     iteration #  3     ecut=    40.00 Ry     beta= 0.70
     Davidson diagonalization with overlap
     ethr =  3.10E-07,  avg # of iterations =  2.0

     negative rho (up, down):  2.241E-03 0.000E+00

     total cpu time spent up to now is       51.3 secs

     End of self-consistent calculation

          k = 0.0000 0.0000 0.0000 (  3625 PWs)   bands (ev):

   -20.5231 -10.6128 -10.6042  -5.5850  -1.0644   2.0850   2.5035   2.6635

     the Fermi energy is    -3.3247 ev

!    total energy              =     -31.79110470 Ry
     estimated scf accuracy    <       0.00000009 Ry
     smearing contrib. (-TS)   =      -0.00000091 Ry
     internal energy E=F+TS    =     -31.79110380 Ry

     convergence has been achieved in   3 iterations

     negative rho (up, down):  2.241E-03 0.000E+00

     Forces acting on atoms (cartesian axes, Ry/au):

     atom    1 type  2   force =    -0.00007859    0.00016359    0.00288383
     atom    2 type  1   force =    -0.00335859   -0.00237169   -0.00096632
     atom    3 type  1   force =     0.00309154   -0.00181627   -0.00101138
     atom    4 type  1   force =     0.00034564    0.00402436   -0.00090613

     Total force =     0.007563     Total SCF correction =     0.000152

     Entering FIRE :       iteration =    29

     FIRE Parameters: P = -.00000000, dt =  2.50, alpha = 0.200 nsteppos =   0 at step 29


ATOMIC_POSITIONS (angstrom)
N            -0.0006664750        0.0000896846        2.3147735786
H             0.8190589374        0.4758361159        2.7054660953
H            -0.8200841035        0.4744086218        2.7072958873
H            -0.0010760769       -0.9451666700        2.7112477792



     Writing config-only to output data dir ./pwscf.save/
     NEW-OLD atomic charge density approx. for the potential

     Check: negative core charge=   -0.000004

     negative rho (up, down):  2.242E-03 0.000E+00

     total cpu time spent up to now is       51.8 secs

     Self-consistent Calculation

     iteration #  1     ecut=    40.00 Ry     beta= 0.70
     Davidson diagonalization with overlap
     ethr =  1.00E-06,  avg # of iterations =  2.0

     Threshold (ethr) on eigenvalues was too large:
     Diagonalizing with lowered threshold

     Davidson diagonalization with overlap
     ethr =  6.04E-10,  avg # of iterations =  1.0

     negative rho (up, down):  2.242E-03 0.000E+00

     total cpu time spent up to now is       52.1 secs

     End of self-consistent calculation

          k = 0.0000 0.0000 0.0000 (  3625 PWs)   bands (ev):

   -20.5252 -10.6146 -10.6061  -5.5866  -1.0642   2.0855   2.5037   2.6636

     the Fermi energy is    -3.3254 ev

!    total energy              =     -31.79110513 Ry
     estimated scf accuracy    <       0.00000006 Ry
     smearing contrib. (-TS)   =      -0.00000090 Ry
     internal energy E=F+TS    =     -31.79110423 Ry

     convergence has been achieved in   1 iterations

     negative rho (up, down):  2.242E-03 0.000E+00

     Forces acting on atoms (cartesian axes, Ry/au):

     atom    1 type  2   force =    -0.00007618    0.00018434    0.00293938
     atom    2 type  1   force =    -0.00339510   -0.00239665   -0.00098645
     atom    3 type  1   force =     0.00312536   -0.00183941   -0.00102983
     atom    4 type  1   force =     0.00034593    0.00405173   -0.00092310

     Total force =     0.007650     Total SCF correction =     0.000139

     Entering FIRE :       iteration =    30

     FIRE Parameters: P = 0.00000001, dt =  2.50, alpha = 0.200 nsteppos =   1 at step 30


ATOMIC_POSITIONS (angstrom)
N            -0.0006670343        0.0000909606        2.3147947254
H             0.8190344317        0.4758188146        2.7054590028
H            -0.8200615454        0.4743953548        2.7072884754
H            -0.0010735700       -0.9451373778        2.7112411368



     Writing config-only to output data dir ./pwscf.save/
     NEW-OLD atomic charge density approx. for the potential

     Check: negative core charge=   -0.000004

     negative rho (up, down):  2.242E-03 0.000E+00

     total cpu time spent up to now is       52.7 secs

     Self-consistent Calculation

     iteration #  1     ecut=    40.00 Ry     beta= 0.70
     Davidson diagonalization with overlap
     ethr =  1.00E-06,  avg # of iterations =  2.0

     Threshold (ethr) on eigenvalues was too large:
     Diagonalizing with lowered threshold

     Davidson diagonalization with overlap
     ethr =  1.21E-09,  avg # of iterations =  1.0

     negative rho (up, down):  2.241E-03 0.000E+00

     total cpu time spent up to now is       53.1 secs

     End of self-consistent calculation

          k = 0.0000 0.0000 0.0000 (  3625 PWs)   bands (ev):

   -20.5228 -10.6126 -10.6040  -5.5839  -1.0638   2.0859   2.5040   2.6642

     the Fermi energy is    -3.3239 ev

!    total energy              =     -31.79110588 Ry
     estimated scf accuracy    <       0.00000012 Ry
     smearing contrib. (-TS)   =      -0.00000091 Ry
     internal energy E=F+TS    =     -31.79110497 Ry

     convergence has been achieved in   1 iterations

     negative rho (up, down):  2.241E-03 0.000E+00

     Forces acting on atoms (cartesian axes, Ry/au):

     atom    1 type  2   force =    -0.00007557    0.00017493    0.00285289
     atom    2 type  1   force =    -0.00325818   -0.00231447   -0.00095719
     atom    3 type  1   force =     0.00298975   -0.00176015   -0.00100055
     atom    4 type  1   force =     0.00034400    0.00389969   -0.00089515

     Total force =     0.007364     Total SCF correction =     0.000261

     Entering FIRE :       iteration =    31

     FIRE Parameters: P = 0.00000003, dt =  2.50, alpha = 0.200 nsteppos =   2 at step 31


ATOMIC_POSITIONS (angstrom)
N            -0.0006678693        0.0000928785        2.3148262724
H             0.8189981193        0.4757931051        2.7054484203
H            -0.8200281675        0.4743757151        2.7072774151
H            -0.0010698004       -0.9450939464        2.7112312325



     Writing config-only to output data dir ./pwscf.save/
     NEW-OLD atomic charge density approx. for the potential

     Check: negative core charge=   -0.000004

     negative rho (up, down):  2.241E-03 0.000E+00

     total cpu time spent up to now is       53.6 secs

     Self-consistent Calculation

     iteration #  1     ecut=    40.00 Ry     beta= 0.70
     Davidson diagonalization with overlap
     ethr =  1.00E-06,  avg # of iterations =  2.0

     Threshold (ethr) on eigenvalues was too large:
     Diagonalizing with lowered threshold

     Davidson diagonalization with overlap
     ethr =  5.59E-09,  avg # of iterations =  1.0

     negative rho (up, down):  2.243E-03 0.000E+00

     total cpu time spent up to now is       54.0 secs

     End of self-consistent calculation

          k = 0.0000 0.0000 0.0000 (  3625 PWs)   bands (ev):

   -20.5280 -10.6168 -10.6083  -5.5885  -1.0641   2.0856   2.5038   2.6635

     the Fermi energy is    -3.3263 ev

!    total energy              =     -31.79110681 Ry
     estimated scf accuracy    <       0.00000053 Ry
     smearing contrib. (-TS)   =      -0.00000089 Ry
     internal energy E=F+TS    =     -31.79110592 Ry

     convergence has been achieved in   1 iterations

     negative rho (up, down):  2.243E-03 0.000E+00

     Forces acting on atoms (cartesian axes, Ry/au):

     atom    1 type  2   force =    -0.00007779    0.00017898    0.00279237
     atom    2 type  1   force =    -0.00333817   -0.00235731   -0.00093621
     atom    3 type  1   force =     0.00307470   -0.00180897   -0.00098093
     atom    4 type  1   force =     0.00034126    0.00398730   -0.00087523

     Total force =     0.007475     Total SCF correction =     0.000436

     Entering FIRE :       iteration =    32

     FIRE Parameters: P = 0.00000004, dt =  2.50, alpha = 0.200 nsteppos =   3 at step 32


ATOMIC_POSITIONS (angstrom)
N            -0.0006689900        0.0000954546        2.3148677631
H             0.8189496394        0.4757588166        2.7054345050
H            -0.8199835689        0.4743494742        2.7072628574
H            -0.0010647985       -0.9450359932        2.7112182149



     Writing config-only to output data dir ./pwscf.save/
     NEW-OLD atomic charge density approx. for the potential

     Check: negative core charge=   -0.000004

     negative rho (up, down):  2.244E-03 0.000E+00

     total cpu time spent up to now is       54.5 secs

     Self-consistent Calculation

     iteration #  1     ecut=    40.00 Ry     beta= 0.70
     Davidson diagonalization with overlap
     ethr =  1.00E-06,  avg # of iterations =  2.0

     Threshold (ethr) on eigenvalues was too large:
     Diagonalizing with lowered threshold

     Davidson diagonalization with overlap
     ethr =  1.64E-08,  avg # of iterations =  1.0

     negative rho (up, down):  2.241E-03 0.000E+00

     total cpu time spent up to now is       54.9 secs

     total energy              =     -31.79110791 Ry
     estimated scf accuracy    <       0.00000142 Ry

     iteration #  2     ecut=    40.00 Ry     beta= 0.70
     Davidson diagonalization with overlap
     ethr =  1.78E-08,  avg # of iterations =  2.0

     negative rho (up, down):  2.242E-03 0.000E+00

     total cpu time spent up to now is       55.2 secs

     total energy              =     -31.79110832 Ry
     estimated scf accuracy    <       0.00000137 Ry

     iteration #  3     ecut=    40.00 Ry     beta= 0.70
     Davidson diagonalization with overlap
     ethr =  1.71E-08,  avg # of iterations =  2.0

     negative rho (up, down):  2.242E-03 0.000E+00

     total cpu time spent up to now is       55.5 secs

     End of self-consistent calculation

          k = 0.0000 0.0000 0.0000 (  3625 PWs)   bands (ev):

   -20.5256 -10.6148 -10.6064  -5.5854  -1.0638   2.0861   2.5041   2.6642

     the Fermi energy is    -3.3246 ev

!    total energy              =     -31.79110856 Ry
     estimated scf accuracy    <          1.5E-09 Ry
     smearing contrib. (-TS)   =      -0.00000090 Ry
     internal energy E=F+TS    =     -31.79110766 Ry

     convergence has been achieved in   3 iterations

     negative rho (up, down):  2.242E-03 0.000E+00

     Forces acting on atoms (cartesian axes, Ry/au):

     atom    1 type  2   force =    -0.00008346    0.00016915    0.00264840
     atom    2 type  1   force =    -0.00314913   -0.00224638   -0.00088677
     atom    3 type  1   force =     0.00289206   -0.00170292   -0.00093328
     atom    4 type  1   force =     0.00034052    0.00378015   -0.00082834

     Total force =     0.007073     Total SCF correction =     0.000033

     Entering FIRE :       iteration =    33

     FIRE Parameters: P = 0.00000005, dt =  2.50, alpha = 0.200 nsteppos =   4 at step 33


ATOMIC_POSITIONS (angstrom)
N            -0.0006704468        0.0000986508        2.3149187323
H             0.8188897178        0.4757163076        2.7054174206
H            -0.8199284777        0.4743170511        2.7072449467
H            -0.0010585112       -0.9449642573        2.7112022407



     Writing config-only to output data dir ./pwscf.save/
     NEW-OLD atomic charge density approx. for the potential

     Check: negative core charge=   -0.000004

     negative rho (up, down):  2.243E-03 0.000E+00

     total cpu time spent up to now is       56.0 secs

     Self-consistent Calculation

     iteration #  1     ecut=    40.00 Ry     beta= 0.70
     Davidson diagonalization with overlap
     ethr =  1.00E-06,  avg # of iterations =  2.0

     Threshold (ethr) on eigenvalues was too large:
     Diagonalizing with lowered threshold

     Davidson diagonalization with overlap
     ethr =  1.67E-10,  avg # of iterations =  1.0

     negative rho (up, down):  2.243E-03 0.000E+00

     total cpu time spent up to now is       56.4 secs

     End of self-consistent calculation

          k = 0.0000 0.0000 0.0000 (  3625 PWs)   bands (ev):

   -20.5270 -10.6159 -10.6075  -5.5855  -1.0636   2.0864   2.5042   2.6643

     the Fermi energy is    -3.3246 ev

!    total energy              =     -31.79111033 Ry
     estimated scf accuracy    <       0.00000001 Ry
     smearing contrib. (-TS)   =      -0.00000090 Ry
     internal energy E=F+TS    =     -31.79110943 Ry

     convergence has been achieved in   1 iterations

     negative rho (up, down):  2.243E-03 0.000E+00

     Forces acting on atoms (cartesian axes, Ry/au):

     atom    1 type  2   force =    -0.00008682    0.00016737    0.00254035
     atom    2 type  1   force =    -0.00304556   -0.00218269   -0.00084960
     atom    3 type  1   force =     0.00279489   -0.00164652   -0.00089792
     atom    4 type  1   force =     0.00033749    0.00366185   -0.00079284

     Total force =     0.006836     Total SCF correction =     0.000198

     Entering FIRE :       iteration =    34

     FIRE Parameters: P = 0.00000006, dt =  2.50, alpha = 0.200 nsteppos =   5 at step 34


ATOMIC_POSITIONS (angstrom)
N            -0.0006722695        0.0001024748        2.3149787381
H             0.8188187258        0.4756657775        2.7053973217
H            -0.8198632476        0.4742786485        2.7072238210
H            -0.0010509267       -0.9448791486        2.7111834596



     Writing config-only to output data dir ./pwscf.save/
     NEW-OLD atomic charge density approx. for the potential

     Check: negative core charge=   -0.000004

     negative rho (up, down):  2.244E-03 0.000E+00

     total cpu time spent up to now is       56.8 secs

     Self-consistent Calculation

     iteration #  1     ecut=    40.00 Ry     beta= 0.70
     Davidson diagonalization with overlap
     ethr =  1.00E-06,  avg # of iterations =  2.0

     Threshold (ethr) on eigenvalues was too large:
     Diagonalizing with lowered threshold

     Davidson diagonalization with overlap
     ethr =  8.08E-11,  avg # of iterations =  1.0

     negative rho (up, down):  2.243E-03 0.000E+00

     total cpu time spent up to now is       57.2 secs

     End of self-consistent calculation

          k = 0.0000 0.0000 0.0000 (  3625 PWs)   bands (ev):

   -20.5277 -10.6165 -10.6082  -5.5852  -1.0634   2.0868   2.5044   2.6646

     the Fermi energy is    -3.3243 ev

!    total energy              =     -31.79111233 Ry
     estimated scf accuracy    <          7.1E-09 Ry
     smearing contrib. (-TS)   =      -0.00000090 Ry
     internal energy E=F+TS    =     -31.79111143 Ry

     convergence has been achieved in   1 iterations

     negative rho (up, down):  2.243E-03 0.000E+00

     Forces acting on atoms (cartesian axes, Ry/au):

     atom    1 type  2   force =    -0.00009231    0.00016034    0.00236418
     atom    2 type  1   force =    -0.00290041   -0.00209386   -0.00078919
     atom    3 type  1   force =     0.00265870   -0.00156696   -0.00083972
     atom    4 type  1   force =     0.00033402    0.00350048   -0.00073528

     Total force =     0.006494     Total SCF correction =     0.000105

     Entering FIRE :       iteration =    35

     FIRE Parameters: P = 0.00000007, dt =  2.75, alpha = 0.198 nsteppos =   6 at step 35


ATOMIC_POSITIONS (angstrom)
N            -0.0006747765        0.0001074100        2.3150547028
H             0.8187278460        0.4756008051        2.7053719036
H            -0.8197798054        0.4742295072        2.7071970049
H            -0.0010409821       -0.9447699702        2.7111597291



     Writing config-only to output data dir ./pwscf.save/
     NEW-OLD atomic charge density approx. for the potential

     Check: negative core charge=   -0.000004

     negative rho (up, down):  2.245E-03 0.000E+00

     total cpu time spent up to now is       57.8 secs

     Self-consistent Calculation

     iteration #  1     ecut=    40.00 Ry     beta= 0.70
     Davidson diagonalization with overlap
     ethr =  1.00E-06,  avg # of iterations =  2.0

     Threshold (ethr) on eigenvalues was too large:
     Diagonalizing with lowered threshold

     Davidson diagonalization with overlap
     ethr =  4.22E-10,  avg # of iterations =  1.0

     negative rho (up, down):  2.244E-03 0.000E+00

     total cpu time spent up to now is       58.3 secs

     End of self-consistent calculation

          k = 0.0000 0.0000 0.0000 (  3625 PWs)   bands (ev):

   -20.5296 -10.6179 -10.6097  -5.5855  -1.0632   2.0872   2.5046   2.6647

     the Fermi energy is    -3.3243 ev

!    total energy              =     -31.79111473 Ry
     estimated scf accuracy    <       0.00000004 Ry
     smearing contrib. (-TS)   =      -0.00000090 Ry
     internal energy E=F+TS    =     -31.79111383 Ry

     convergence has been achieved in   1 iterations

     negative rho (up, down):  2.244E-03 0.000E+00

     Forces acting on atoms (cartesian axes, Ry/au):

     atom    1 type  2   force =    -0.00009828    0.00015324    0.00216178
     atom    2 type  1   force =    -0.00274201   -0.00199608   -0.00071967
     atom    3 type  1   force =     0.00251084   -0.00148068   -0.00077291
     atom    4 type  1   force =     0.00032945    0.00332352   -0.00066920

     Total force =     0.006117     Total SCF correction =     0.000205

     Entering FIRE :       iteration =    36

     FIRE Parameters: P = 0.00000007, dt =  3.03, alpha = 0.196 nsteppos =   7 at step 36


ATOMIC_POSITIONS (angstrom)
N            -0.0006782223        0.0001136905        2.3151489110
H             0.8186131932        0.4755183899        2.7053404270
H            -0.8196746203        0.4741675363        2.7071636263
H            -0.0010280686       -0.9446318645        2.7111303761



     Writing config-only to output data dir ./pwscf.save/
     NEW-OLD atomic charge density approx. for the potential

     Check: negative core charge=   -0.000004

     negative rho (up, down):  2.246E-03 0.000E+00

     total cpu time spent up to now is       58.8 secs

     Self-consistent Calculation

     iteration #  1     ecut=    40.00 Ry     beta= 0.70
     Davidson diagonalization with overlap
     ethr =  1.00E-06,  avg # of iterations =  2.0

     Threshold (ethr) on eigenvalues was too large:
     Diagonalizing with lowered threshold

     Davidson diagonalization with overlap
     ethr =  1.64E-10,  avg # of iterations =  1.0

     negative rho (up, down):  2.245E-03 0.000E+00

     total cpu time spent up to now is       59.2 secs

     End of self-consistent calculation

          k = 0.0000 0.0000 0.0000 (  3625 PWs)   bands (ev):

   -20.5307 -10.6188 -10.6107  -5.5847  -1.0629   2.0878   2.5050   2.6652

     the Fermi energy is    -3.3238 ev

!    total energy              =     -31.79111755 Ry
     estimated scf accuracy    <       0.00000001 Ry
     smearing contrib. (-TS)   =      -0.00000090 Ry
     internal energy E=F+TS    =     -31.79111665 Ry

     convergence has been achieved in   1 iterations

     negative rho (up, down):  2.245E-03 0.000E+00

     Forces acting on atoms (cartesian axes, Ry/au):

     atom    1 type  2   force =    -0.00010555    0.00014196    0.00188597
     atom    2 type  1   force =    -0.00250048   -0.00184776   -0.00062542
     atom    3 type  1   force =     0.00228278   -0.00134747   -0.00068180
     atom    4 type  1   force =     0.00032325    0.00305326   -0.00057875

     Total force =     0.005559     Total SCF correction =     0.000245

     Entering FIRE :       iteration =    37

     FIRE Parameters: P = 0.00000007, dt =  3.33, alpha = 0.194 nsteppos =   8 at step 37


ATOMIC_POSITIONS (angstrom)
N            -0.0006829968        0.0001215712        2.3152631549
H             0.8184708132        0.4754152234        2.7053023330
H            -0.8195441804        0.4740906447        2.7071229275
H            -0.0010113540       -0.9444596871        2.7110949250



     Writing config-only to output data dir ./pwscf.save/
     NEW-OLD atomic charge density approx. for the potential

     Check: negative core charge=   -0.000004

     negative rho (up, down):  2.247E-03 0.000E+00

     total cpu time spent up to now is       59.7 secs

     Self-consistent Calculation

     iteration #  1     ecut=    40.00 Ry     beta= 0.70
     Davidson diagonalization with overlap
     ethr =  1.00E-06,  avg # of iterations =  2.0

     Threshold (ethr) on eigenvalues was too large:
     Diagonalizing with lowered threshold

     Davidson diagonalization with overlap
     ethr =  1.60E-09,  avg # of iterations =  1.0

     negative rho (up, down):  2.246E-03 0.000E+00

     total cpu time spent up to now is       60.2 secs

     End of self-consistent calculation

          k = 0.0000 0.0000 0.0000 (  3625 PWs)   bands (ev):

   -20.5341 -10.6214 -10.6135  -5.5858  -1.0626   2.0883   2.5053   2.6654

     the Fermi energy is    -3.3242 ev

!    total energy              =     -31.79112061 Ry
     estimated scf accuracy    <       0.00000014 Ry
     smearing contrib. (-TS)   =      -0.00000089 Ry
     internal energy E=F+TS    =     -31.79111972 Ry

     convergence has been achieved in   1 iterations

     negative rho (up, down):  2.246E-03 0.000E+00

     Forces acting on atoms (cartesian axes, Ry/au):

     atom    1 type  2   force =    -0.00011433    0.00013128    0.00157132
     atom    2 type  1   force =    -0.00227297   -0.00170624   -0.00051773
     atom    3 type  1   force =     0.00207137   -0.00122398   -0.00057766
     atom    4 type  1   force =     0.00031593    0.00279893   -0.00047594

     Total force =     0.005013     Total SCF correction =     0.000280

     Entering FIRE :       iteration =    38

     FIRE Parameters: P = 0.00000008, dt =  3.66, alpha = 0.192 nsteppos =   9 at step 38


ATOMIC_POSITIONS (angstrom)
N            -0.0006896627        0.0001313566        2.3153979794
H             0.8182961157        0.4752873839        2.7052575084
H            -0.8193843660        0.4739963751        2.7070745180
H            -0.0009898051       -0.9442473635        2.7110533346



     Writing config-only to output data dir ./pwscf.save/
     NEW-OLD atomic charge density approx. for the potential

     Check: negative core charge=   -0.000004

     negative rho (up, down):  2.249E-03 0.000E+00

     total cpu time spent up to now is       60.6 secs

     Self-consistent Calculation

     iteration #  1     ecut=    40.00 Ry     beta= 0.70
     Davidson diagonalization with overlap
     ethr =  1.00E-06,  avg # of iterations =  2.0

     Threshold (ethr) on eigenvalues was too large:
     Diagonalizing with lowered threshold

     Davidson diagonalization with overlap
     ethr =  5.10E-10,  avg # of iterations =  1.0

     negative rho (up, down):  2.247E-03 0.000E+00

     total cpu time spent up to now is       61.1 secs

     End of self-consistent calculation

          k = 0.0000 0.0000 0.0000 (  3625 PWs)   bands (ev):

   -20.5347 -10.6217 -10.6140  -5.5835  -1.0620   2.0894   2.5059   2.6663

     the Fermi energy is    -3.3227 ev

!    total energy              =     -31.79112397 Ry
     estimated scf accuracy    <       0.00000005 Ry
     smearing contrib. (-TS)   =      -0.00000090 Ry
     internal energy E=F+TS    =     -31.79112307 Ry

     convergence has been achieved in   1 iterations

     negative rho (up, down):  2.247E-03 0.000E+00

     Forces acting on atoms (cartesian axes, Ry/au):

     atom    1 type  2   force =    -0.00012411    0.00011506    0.00115254
     atom    2 type  1   force =    -0.00186833   -0.00145780   -0.00037529
     atom    3 type  1   force =     0.00168678   -0.00099918   -0.00043868
     atom    4 type  1   force =     0.00030566    0.00234192   -0.00033858

     Total force =     0.004104     Total SCF correction =     0.000457
     SCF correction compared to forces is large: reduce conv_thr to get better values

     Entering FIRE :       iteration =    39

     FIRE Parameters: P = 0.00000007, dt =  4.03, alpha = 0.190 nsteppos =  10 at step 39


ATOMIC_POSITIONS (angstrom)
N            -0.0006992285        0.0001434366        2.3155517687
H             0.8180858851        0.4751308937        2.7052066094
H            -0.8191926997        0.4738831942        2.7070185727
H            -0.0009616749       -0.9439897723        2.7110063896



     Writing config-only to output data dir ./pwscf.save/
     NEW-OLD atomic charge density approx. for the potential

     Check: negative core charge=   -0.000004

     negative rho (up, down):  2.250E-03 0.000E+00

     total cpu time spent up to now is       61.5 secs

     Self-consistent Calculation

     iteration #  1     ecut=    40.00 Ry     beta= 0.70
     Davidson diagonalization with overlap
     ethr =  1.00E-06,  avg # of iterations =  2.0

     Threshold (ethr) on eigenvalues was too large:
     Diagonalizing with lowered threshold

     Davidson diagonalization with overlap
     ethr =  8.24E-09,  avg # of iterations =  1.0

     negative rho (up, down):  2.250E-03 0.000E+00

     total cpu time spent up to now is       61.9 secs

     End of self-consistent calculation

          k = 0.0000 0.0000 0.0000 (  3625 PWs)   bands (ev):

   -20.5417 -10.6271 -10.6198  -5.5873  -1.0618   2.0899   2.5062   2.6662

     the Fermi energy is    -3.3245 ev

!    total energy              =     -31.79112683 Ry
     estimated scf accuracy    <       0.00000072 Ry
     smearing contrib. (-TS)   =      -0.00000088 Ry
     internal energy E=F+TS    =     -31.79112594 Ry

     convergence has been achieved in   1 iterations

     negative rho (up, down):  2.250E-03 0.000E+00

     Forces acting on atoms (cartesian axes, Ry/au):

     atom    1 type  2   force =    -0.00013240    0.00010167    0.00071173
     atom    2 type  1   force =    -0.00161139   -0.00129268   -0.00022498
     atom    3 type  1   force =     0.00145073   -0.00086108   -0.00029241
     atom    4 type  1   force =     0.00029306    0.00205209   -0.00019434

     Total force =     0.003481     Total SCF correction =     0.000469
     SCF correction compared to forces is large: reduce conv_thr to get better values

     Entering FIRE :       iteration =    40

     FIRE Parameters: P = 0.00000006, dt =  4.43, alpha = 0.188 nsteppos =  11 at step 40


ATOMIC_POSITIONS (angstrom)
N            -0.0007129452        0.0001581970        2.3157169062
H             0.8178351832        0.4749406342        2.7051523682
H            -0.8189648541        0.4737484767        2.7069571895
H            -0.0009251019       -0.9436795557        2.7109568764



     Writing config-only to output data dir ./pwscf.save/
     NEW-OLD atomic charge density approx. for the potential

     Check: negative core charge=   -0.000004

     negative rho (up, down):  2.254E-03 0.000E+00

     total cpu time spent up to now is       62.5 secs

     Self-consistent Calculation

     iteration #  1     ecut=    40.00 Ry     beta= 0.70
     Davidson diagonalization with overlap
     ethr =  1.00E-06,  avg # of iterations =  2.0

     Threshold (ethr) on eigenvalues was too large:
     Diagonalizing with lowered threshold

     Davidson diagonalization with overlap
     ethr =  7.80E-09,  avg # of iterations =  1.0

     negative rho (up, down):  2.249E-03 0.000E+00

     total cpu time spent up to now is       63.0 secs

     End of self-consistent calculation

          k = 0.0000 0.0000 0.0000 (  3625 PWs)   bands (ev):

   -20.5386 -10.6240 -10.6172  -5.5801  -1.0606   2.0918   2.5073   2.6680

     the Fermi energy is    -3.3203 ev

!    total energy              =     -31.79112959 Ry
     estimated scf accuracy    <       0.00000070 Ry
     smearing contrib. (-TS)   =      -0.00000091 Ry
     internal energy E=F+TS    =     -31.79112868 Ry

     convergence has been achieved in   1 iterations

     negative rho (up, down):  2.249E-03 0.000E+00

     Forces acting on atoms (cartesian axes, Ry/au):

     atom    1 type  2   force =    -0.00014010    0.00007782    0.00012261
     atom    2 type  1   force =    -0.00090347   -0.00085920   -0.00002654
     atom    3 type  1   force =     0.00076828   -0.00046332   -0.00009570
     atom    4 type  1   force =     0.00027529    0.00124470   -0.00000036

     Total force =     0.002009     Total SCF correction =     0.000978
     SCF correction compared to forces is large: reduce conv_thr to get better values

     Entering FIRE :       iteration =    41

     FIRE Parameters: P = 0.00000004, dt =  4.87, alpha = 0.186 nsteppos =  12 at step 41


ATOMIC_POSITIONS (angstrom)
N            -0.0007350142        0.0001768463        2.3158732658
H             0.8175476633        0.4747103018        2.7051019699
H            -0.8187072396        0.4735955245        2.7068955654
H            -0.0008731274       -0.9433149205        2.7109125393



     Writing config-only to output data dir ./pwscf.save/
     NEW-OLD atomic charge density approx. for the potential

     Check: negative core charge=   -0.000004

     negative rho (up, down):  2.253E-03 0.000E+00

     total cpu time spent up to now is       63.5 secs

     Self-consistent Calculation

     iteration #  1     ecut=    40.00 Ry     beta= 0.70
     Davidson diagonalization with overlap
     ethr =  1.00E-06,  avg # of iterations =  2.0

     Threshold (ethr) on eigenvalues was too large:
     Diagonalizing with lowered threshold

     Davidson diagonalization with overlap
     ethr =  5.97E-08,  avg # of iterations =  1.0

     negative rho (up, down):  2.256E-03 0.000E+00

     total cpu time spent up to now is       63.9 secs

     total energy              =     -31.79112946 Ry
     estimated scf accuracy    <       0.00000512 Ry

     iteration #  2     ecut=    40.00 Ry     beta= 0.70
     Davidson diagonalization with overlap
     ethr =  6.40E-08,  avg # of iterations =  2.0

     negative rho (up, down):  2.253E-03 0.000E+00

     total cpu time spent up to now is       64.2 secs

     total energy              =     -31.79113093 Ry
     estimated scf accuracy    <       0.00000468 Ry

     iteration #  3     ecut=    40.00 Ry     beta= 0.70
     Davidson diagonalization with overlap
     ethr =  5.85E-08,  avg # of iterations =  2.0

     negative rho (up, down):  2.253E-03 0.000E+00

     total cpu time spent up to now is       64.5 secs

     End of self-consistent calculation

          k = 0.0000 0.0000 0.0000 (  3625 PWs)   bands (ev):

   -20.5455 -10.6290 -10.6228  -5.5839  -1.0604   2.0922   2.5077   2.6681

     the Fermi energy is    -3.3222 ev

!    total energy              =     -31.79113177 Ry
     estimated scf accuracy    <          4.8E-09 Ry
     smearing contrib. (-TS)   =      -0.00000089 Ry
     internal energy E=F+TS    =     -31.79113087 Ry

     convergence has been achieved in   3 iterations

     negative rho (up, down):  2.253E-03 0.000E+00

     Forces acting on atoms (cartesian axes, Ry/au):

     atom    1 type  2   force =    -0.00014344    0.00006667   -0.00045424
     atom    2 type  1   force =    -0.00047460   -0.00058091    0.00016666
     atom    3 type  1   force =     0.00036732   -0.00022984    0.00009777
     atom    4 type  1   force =     0.00025072    0.00074408    0.00018981

     Total force =     0.001293     Total SCF correction =     0.000038

     Entering FIRE :       iteration =    42

     FIRE Parameters: P = 0.00000002, dt =  5.36, alpha = 0.185 nsteppos =  13 at step 42


ATOMIC_POSITIONS (angstrom)
N            -0.0000744099        0.0005506847        2.6100291489
H             0.8691682084        0.5017310208        2.6093434689
H            -0.8691704157        0.5020108954        2.6092252541
H             0.0002067489       -1.0030216100        2.6074929921



     Writing config-only to output data dir ./pwscf.save/
     NEW-OLD atomic charge density approx. for the potential

     Check: negative core charge=   -0.000004

     negative rho (up, down):  1.739E-03 0.000E+00

     total cpu time spent up to now is       65.0 secs

     Self-consistent Calculation

     iteration #  1     ecut=    40.00 Ry     beta= 0.70
     Davidson diagonalization with overlap
     ethr =  1.00E-06,  avg # of iterations = 12.0

     negative rho (up, down):  2.104E-03 0.000E+00

     total cpu time spent up to now is       65.4 secs

     total energy              =     -31.75400266 Ry
     estimated scf accuracy    <       0.06892472 Ry

     iteration #  2     ecut=    40.00 Ry     beta= 0.70
     Davidson diagonalization with overlap
     ethr =  8.62E-04,  avg # of iterations =  2.0

     negative rho (up, down):  1.857E-03 0.000E+00

     total cpu time spent up to now is       65.7 secs

     total energy              =     -31.76855383 Ry
     estimated scf accuracy    <       0.02511891 Ry

     iteration #  3     ecut=    40.00 Ry     beta= 0.70
     Davidson diagonalization with overlap
     ethr =  3.14E-04,  avg # of iterations =  2.0

     negative rho (up, down):  1.996E-03 0.000E+00

     total cpu time spent up to now is       66.0 secs

     total energy              =     -31.77438977 Ry
     estimated scf accuracy    <       0.00156910 Ry

     iteration #  4     ecut=    40.00 Ry     beta= 0.70
     Davidson diagonalization with overlap
     ethr =  1.96E-05,  avg # of iterations =  2.0

     negative rho (up, down):  2.087E-03 0.000E+00

     total cpu time spent up to now is       66.3 secs

     total energy              =     -31.77464562 Ry
     estimated scf accuracy    <       0.00003631 Ry

     iteration #  5     ecut=    40.00 Ry     beta= 0.70
     Davidson diagonalization with overlap
     ethr =  4.54E-07,  avg # of iterations =  4.0

     negative rho (up, down):  2.085E-03 0.000E+00

     total cpu time spent up to now is       66.6 secs

     total energy              =     -31.77464955 Ry
     estimated scf accuracy    <       0.00000293 Ry

     iteration #  6     ecut=    40.00 Ry     beta= 0.70
     Davidson diagonalization with overlap
     ethr =  3.66E-08,  avg # of iterations =  1.0

     negative rho (up, down):  2.080E-03 0.000E+00

     total cpu time spent up to now is       66.9 secs

     End of self-consistent calculation

          k = 0.0000 0.0000 0.0000 (  3625 PWs)   bands (ev):

   -20.1378 -11.1926 -11.1854  -4.7652  -1.0300   2.0375   2.3517   2.7132

     the Fermi energy is    -2.8976 ev

!    total energy              =     -31.77464952 Ry
     estimated scf accuracy    <       0.00000041 Ry
     smearing contrib. (-TS)   =      -0.00003008 Ry
     internal energy E=F+TS    =     -31.77461944 Ry

     convergence has been achieved in   6 iterations

     negative rho (up, down):  2.080E-03 0.000E+00

     Forces acting on atoms (cartesian axes, Ry/au):

     atom    1 type  2   force =    -0.00135586    0.00058016    0.39333667
     atom    2 type  1   force =     0.00816709   -0.00394797   -0.12717283
     atom    3 type  1   force =    -0.00688513    0.00208777   -0.13088565
     atom    4 type  1   force =     0.00470224   -0.00494372   -0.13957850

     Total force =     0.455722     Total SCF correction =     0.000343

     Entering FIRE :       iteration =    43

     FIRE Parameters: P = 0.00000000, dt = 20.00, alpha = 0.000 nsteppos =   1 at step 43


ATOMIC_POSITIONS (angstrom)
N            -0.0003892898        0.0006854182        2.7013763931
H             0.8710649062        0.5008141565        2.5798092587
H            -0.8707693955        0.5024957525        2.5788287907
H             0.0012987810       -1.0041697227        2.5750777285



     Writing config-only to output data dir ./pwscf.save/
     NEW-OLD atomic charge density approx. for the potential

     Check: negative core charge=   -0.000004

     negative rho (up, down):  1.602E-03 0.000E+00

     total cpu time spent up to now is       67.4 secs

     Self-consistent Calculation

     iteration #  1     ecut=    40.00 Ry     beta= 0.70
     Davidson diagonalization with overlap
     ethr =  1.00E-06,  avg # of iterations =  7.0

     negative rho (up, down):  1.893E-03 0.000E+00

     total cpu time spent up to now is       68.0 secs

     total energy              =     -31.77592483 Ry
     estimated scf accuracy    <       0.00757975 Ry

     iteration #  2     ecut=    40.00 Ry     beta= 0.70
     Davidson diagonalization with overlap
     ethr =  9.47E-05,  avg # of iterations =  2.0

     negative rho (up, down):  2.075E-03 0.000E+00

     total cpu time spent up to now is       68.2 secs

     total energy              =     -31.77752376 Ry
     estimated scf accuracy    <       0.00030201 Ry

     iteration #  3     ecut=    40.00 Ry     beta= 0.70
     Davidson diagonalization with overlap
     ethr =  3.78E-06,  avg # of iterations =  2.0

     negative rho (up, down):  2.127E-03 0.000E+00

     total cpu time spent up to now is       68.5 secs

     total energy              =     -31.77757486 Ry
     estimated scf accuracy    <       0.00004314 Ry

     iteration #  4     ecut=    40.00 Ry     beta= 0.70
     Davidson diagonalization with overlap
     ethr =  5.39E-07,  avg # of iterations =  2.0

     negative rho (up, down):  2.172E-03 0.000E+00

     total cpu time spent up to now is       68.8 secs

     total energy              =     -31.77758576 Ry
     estimated scf accuracy    <       0.00000870 Ry

     iteration #  5     ecut=    40.00 Ry     beta= 0.70
     Davidson diagonalization with overlap
     ethr =  1.09E-07,  avg # of iterations =  2.0

     negative rho (up, down):  2.173E-03 0.000E+00

     total cpu time spent up to now is       69.1 secs

     End of self-consistent calculation

          k = 0.0000 0.0000 0.0000 (  3625 PWs)   bands (ev):

   -20.1145 -11.0940 -11.0680  -4.8327  -1.0494   2.0183   2.3399   2.6987

     the Fermi energy is    -2.9411 ev

!    total energy              =     -31.77758698 Ry
     estimated scf accuracy    <       0.00000006 Ry
     smearing contrib. (-TS)   =      -0.00002473 Ry
     internal energy E=F+TS    =     -31.77756224 Ry

     convergence has been achieved in   5 iterations

     negative rho (up, down):  2.173E-03 0.000E+00

     Forces acting on atoms (cartesian axes, Ry/au):

     atom    1 type  2   force =     0.00059485   -0.00187874    0.02231157
     atom    2 type  1   force =    -0.01005740   -0.00488551   -0.00746497
     atom    3 type  1   force =     0.00999390   -0.00546918   -0.00756405
     atom    4 type  1   force =    -0.00053135    0.01223344   -0.00728255

     Total force =     0.032748     Total SCF correction =     0.000597

     Entering FIRE :       iteration =    44

     FIRE Parameters: P = 0.00002107, dt = 20.00, alpha = 0.200 nsteppos =   2 at step 44


ATOMIC_POSITIONS (angstrom)
N            -0.0001244695       -0.0008387838        2.7938353798
H             0.8638457938        0.4958368111        2.5496973609
H            -0.8633672736        0.4981327743        2.5479410269
H             0.0017108472       -0.9944615062        2.5428194492



     Writing config-only to output data dir ./pwscf.save/
     NEW-OLD atomic charge density approx. for the potential

     Check: negative core charge=   -0.000004

     negative rho (up, down):  1.497E-03 0.000E+00

     total cpu time spent up to now is       69.6 secs

     Self-consistent Calculation

     iteration #  1     ecut=    40.00 Ry     beta= 0.70
     Davidson diagonalization with overlap
     ethr =  1.00E-06,  avg # of iterations =  8.0

     negative rho (up, down):  1.855E-03 0.000E+00

     total cpu time spent up to now is       70.0 secs

     total energy              =     -31.78246091 Ry
     estimated scf accuracy    <       0.00683095 Ry

     iteration #  2     ecut=    40.00 Ry     beta= 0.70
     Davidson diagonalization with overlap
     ethr =  8.54E-05,  avg # of iterations =  2.0

     negative rho (up, down):  2.086E-03 0.000E+00

     total cpu time spent up to now is       70.3 secs

     total energy              =     -31.78375183 Ry
     estimated scf accuracy    <       0.00083829 Ry

     iteration #  3     ecut=    40.00 Ry     beta= 0.70
     Davidson diagonalization with overlap
     ethr =  1.05E-05,  avg # of iterations =  2.0

     negative rho (up, down):  2.151E-03 0.000E+00

     total cpu time spent up to now is       70.6 secs

     total energy              =     -31.78396531 Ry
     estimated scf accuracy    <       0.00021455 Ry

     iteration #  4     ecut=    40.00 Ry     beta= 0.70
     Davidson diagonalization with overlap
     ethr =  2.68E-06,  avg # of iterations =  2.0

     negative rho (up, down):  2.220E-03 0.000E+00

     total cpu time spent up to now is       70.9 secs

     total energy              =     -31.78401056 Ry
     estimated scf accuracy    <       0.00000438 Ry

     iteration #  5     ecut=    40.00 Ry     beta= 0.70
     Davidson diagonalization with overlap
     ethr =  5.47E-08,  avg # of iterations =  2.0

     negative rho (up, down):  2.222E-03 0.000E+00

     total cpu time spent up to now is       71.2 secs

     End of self-consistent calculation

          k = 0.0000 0.0000 0.0000 (  3625 PWs)   bands (ev):

   -20.1612 -10.8711 -10.8577  -5.0596  -1.0728   2.0098   2.3664   2.6724

     the Fermi energy is    -3.0662 ev

!    total energy              =     -31.78401078 Ry
     estimated scf accuracy    <       0.00000020 Ry
     smearing contrib. (-TS)   =      -0.00001053 Ry
     internal energy E=F+TS    =     -31.78400025 Ry

     convergence has been achieved in   5 iterations

     negative rho (up, down):  2.222E-03 0.000E+00

     Forces acting on atoms (cartesian axes, Ry/au):

     atom    1 type  2   force =    -0.00057610    0.00186041    0.01869592
     atom    2 type  1   force =    -0.02283645   -0.01225689   -0.00618625
     atom    3 type  1   force =     0.02399682   -0.01362017   -0.00600096
     atom    4 type  1   force =    -0.00058426    0.02401665   -0.00650871

     Total force =     0.049802     Total SCF correction =     0.000465

     Entering FIRE :       iteration =    45

     FIRE Parameters: P = 0.00002365, dt = 20.00, alpha = 0.200 nsteppos =   3 at step 45


ATOMIC_POSITIONS (angstrom)
N            -0.0002857210       -0.0008532687        2.8799108296
H             0.8432806625        0.4839168616        2.5216013662
H            -0.8419042364        0.4858214008        2.5193443434
H             0.0016621097       -0.9711407455        2.5127975140



     Writing config-only to output data dir ./pwscf.save/
     NEW-OLD atomic charge density approx. for the potential

     Check: negative core charge=   -0.000004

     negative rho (up, down):  1.620E-03 0.000E+00

     total cpu time spent up to now is       71.8 secs

     Self-consistent Calculation

     iteration #  1     ecut=    40.00 Ry     beta= 0.70
     Davidson diagonalization with overlap
     ethr =  1.00E-06,  avg # of iterations =  8.0

     negative rho (up, down):  1.811E-03 0.000E+00

     total cpu time spent up to now is       72.2 secs

     total energy              =     -31.78828075 Ry
     estimated scf accuracy    <       0.00426979 Ry

     iteration #  2     ecut=    40.00 Ry     beta= 0.70
     Davidson diagonalization with overlap
     ethr =  5.34E-05,  avg # of iterations =  2.0

     negative rho (up, down):  1.975E-03 0.000E+00

     total cpu time spent up to now is       72.5 secs

     total energy              =     -31.78897366 Ry
     estimated scf accuracy    <       0.00078902 Ry

     iteration #  3     ecut=    40.00 Ry     beta= 0.70
     Davidson diagonalization with overlap
     ethr =  9.86E-06,  avg # of iterations =  2.0

     negative rho (up, down):  2.039E-03 0.000E+00

     total cpu time spent up to now is       72.8 secs

     total energy              =     -31.78917876 Ry
     estimated scf accuracy    <       0.00017409 Ry

     iteration #  4     ecut=    40.00 Ry     beta= 0.70
     Davidson diagonalization with overlap
     ethr =  2.18E-06,  avg # of iterations =  2.0

     negative rho (up, down):  2.086E-03 0.000E+00

     total cpu time spent up to now is       73.2 secs

     total energy              =     -31.78921382 Ry
     estimated scf accuracy    <       0.00000314 Ry

     iteration #  5     ecut=    40.00 Ry     beta= 0.70
     Davidson diagonalization with overlap
     ethr =  3.93E-08,  avg # of iterations =  2.0

     negative rho (up, down):  2.088E-03 0.000E+00

     total cpu time spent up to now is       73.4 secs

     End of self-consistent calculation

          k = 0.0000 0.0000 0.0000 (  3625 PWs)   bands (ev):

   -20.3012 -10.6168 -10.5898  -5.4271  -1.0852   2.0229   2.4475   2.6451

     the Fermi energy is    -3.2562 ev

!    total energy              =     -31.78921402 Ry
     estimated scf accuracy    <       0.00000013 Ry
     smearing contrib. (-TS)   =      -0.00000213 Ry
     internal energy E=F+TS    =     -31.78921189 Ry

     convergence has been achieved in   5 iterations

     negative rho (up, down):  2.088E-03 0.000E+00

     Forces acting on atoms (cartesian axes, Ry/au):

     atom    1 type  2   force =     0.00047723   -0.00155576   -0.00988864
     atom    2 type  1   force =    -0.02434764   -0.01301949    0.00311183
     atom    3 type  1   force =     0.02441325   -0.01370268    0.00298113
     atom    4 type  1   force =    -0.00054283    0.02827794    0.00379568

     Total force =     0.049794     Total SCF correction =     0.000353

     Entering FIRE :       iteration =    46

     FIRE Parameters: P = 0.00000685, dt = 20.00, alpha = 0.200 nsteppos =   4 at step 46


ATOMIC_POSITIONS (angstrom)
N            -0.0001145405       -0.0018434401        2.9425511835
H             0.8115137661        0.4661915745        2.5010819276
H            -0.8093777515        0.4673532445        2.4983421447
H             0.0012816742       -0.9346971684        2.4911674666



     Writing config-only to output data dir ./pwscf.save/
     NEW-OLD atomic charge density approx. for the potential

     Check: negative core charge=   -0.000004

     negative rho (up, down):  1.952E-03 0.000E+00

     total cpu time spent up to now is       73.9 secs

     Self-consistent Calculation

     iteration #  1     ecut=    40.00 Ry     beta= 0.70
     Davidson diagonalization with overlap
     ethr =  1.00E-06,  avg # of iterations =  8.0

     negative rho (up, down):  2.146E-03 0.000E+00

     total cpu time spent up to now is       74.3 secs

     total energy              =     -31.78963724 Ry
     estimated scf accuracy    <       0.00133972 Ry

     iteration #  2     ecut=    40.00 Ry     beta= 0.70
     Davidson diagonalization with overlap
     ethr =  1.67E-05,  avg # of iterations =  2.0

     negative rho (up, down):  2.280E-03 0.000E+00

     total cpu time spent up to now is       74.7 secs

     total energy              =     -31.78978028 Ry
     estimated scf accuracy    <       0.00007584 Ry

     iteration #  3     ecut=    40.00 Ry     beta= 0.70
     Davidson diagonalization with overlap
     ethr =  9.48E-07,  avg # of iterations =  2.0

     negative rho (up, down):  2.303E-03 0.000E+00

     total cpu time spent up to now is       74.9 secs

     total energy              =     -31.78978518 Ry
     estimated scf accuracy    <       0.00001727 Ry

     iteration #  4     ecut=    40.00 Ry     beta= 0.70
     Davidson diagonalization with overlap
     ethr =  2.16E-07,  avg # of iterations =  2.0

     negative rho (up, down):  2.318E-03 0.000E+00

     total cpu time spent up to now is       75.3 secs

     total energy              =     -31.78978960 Ry
     estimated scf accuracy    <       0.00000301 Ry

     iteration #  5     ecut=    40.00 Ry     beta= 0.70
     Davidson diagonalization with overlap
     ethr =  3.77E-08,  avg # of iterations =  2.0

     negative rho (up, down):  2.318E-03 0.000E+00

     total cpu time spent up to now is       75.5 secs

     End of self-consistent calculation

          k = 0.0000 0.0000 0.0000 (  3625 PWs)   bands (ev):

   -20.5564 -10.4263 -10.4060  -5.8088  -1.0852   2.0785   2.5190   2.6327

     the Fermi energy is    -3.4470 ev

!    total energy              =     -31.78979006 Ry
     estimated scf accuracy    <       0.00000001 Ry
     smearing contrib. (-TS)   =      -0.00000033 Ry
     internal energy E=F+TS    =     -31.78978973 Ry

     convergence has been achieved in   5 iterations

     negative rho (up, down):  2.318E-03 0.000E+00

     Forces acting on atoms (cartesian axes, Ry/au):

     atom    1 type  2   force =     0.00050887   -0.00135567   -0.03367784
     atom    2 type  1   force =    -0.00840875   -0.00422845    0.01107600
     atom    3 type  1   force =     0.00819218   -0.00444747    0.01087316
     atom    4 type  1   force =    -0.00029230    0.01003159    0.01172868

     Total force =     0.042320     Total SCF correction =     0.000193

     Entering FIRE :       iteration =    47

     FIRE Parameters: P = -.00001387, dt = 10.00, alpha = 0.200 nsteppos =   0 at step 47


ATOMIC_POSITIONS (angstrom)
N            -0.0001705860       -0.0014270633        2.9092756979
H             0.8269090092        0.4748087175        2.5119847105
H            -0.8251653626        0.4763291058        2.5094745311
H             0.0014549210       -0.9523365307        2.5026634483



     Writing config-only to output data dir ./pwscf.save/
     NEW-OLD atomic charge density approx. for the potential

     Check: negative core charge=   -0.000004

     negative rho (up, down):  2.368E-03 0.000E+00

     total cpu time spent up to now is       76.0 secs

     Self-consistent Calculation

     iteration #  1     ecut=    40.00 Ry     beta= 0.70
     Davidson diagonalization with overlap
     ethr =  1.00E-06,  avg # of iterations =  6.0

     negative rho (up, down):  2.268E-03 0.000E+00

     total cpu time spent up to now is       76.4 secs

     total energy              =     -31.79052148 Ry
     estimated scf accuracy    <       0.00041881 Ry

     iteration #  2     ecut=    40.00 Ry     beta= 0.70
     Davidson diagonalization with overlap
     ethr =  5.24E-06,  avg # of iterations =  2.0

     negative rho (up, down):  2.238E-03 0.000E+00

     total cpu time spent up to now is       76.7 secs

     total energy              =     -31.79056773 Ry
     estimated scf accuracy    <       0.00008232 Ry

     iteration #  3     ecut=    40.00 Ry     beta= 0.70
     Davidson diagonalization with overlap
     ethr =  1.03E-06,  avg # of iterations =  2.0

     negative rho (up, down):  2.236E-03 0.000E+00

     total cpu time spent up to now is       76.9 secs

     total energy              =     -31.79058821 Ry
     estimated scf accuracy    <       0.00002193 Ry

     iteration #  4     ecut=    40.00 Ry     beta= 0.70
     Davidson diagonalization with overlap
     ethr =  2.74E-07,  avg # of iterations =  2.0

     negative rho (up, down):  2.234E-03 0.000E+00

     total cpu time spent up to now is       77.2 secs

     End of self-consistent calculation

          k = 0.0000 0.0000 0.0000 (  3625 PWs)   bands (ev):

   -20.4434 -10.5485 -10.5265  -5.5998  -1.0805   2.0564   2.4862   2.6443

     the Fermi energy is    -3.3402 ev

!    total energy              =     -31.79059251 Ry
     estimated scf accuracy    <       0.00000026 Ry
     smearing contrib. (-TS)   =      -0.00000091 Ry
     internal energy E=F+TS    =     -31.79059160 Ry

     convergence has been achieved in   4 iterations

     negative rho (up, down):  2.234E-03 0.000E+00

     Forces acting on atoms (cartesian axes, Ry/au):

     atom    1 type  2   force =     0.00042441   -0.00117518   -0.01683770
     atom    2 type  1   force =    -0.01414048   -0.00736887    0.00548256
     atom    3 type  1   force =     0.01411931   -0.00783298    0.00533942
     atom    4 type  1   force =    -0.00040325    0.01637703    0.00601572

     Total force =     0.034105     Total SCF correction =     0.000445

     Entering FIRE :       iteration =    48

     FIRE Parameters: P = 0.00000112, dt = 10.00, alpha = 0.200 nsteppos =   1 at step 48


ATOMIC_POSITIONS (angstrom)
N            -0.0001166181       -0.0015740183        2.9065080956
H             0.8255078545        0.4740856795        2.5128909883
H            -0.8237757795        0.4755627253        2.5103611583
H             0.0014125246       -0.9507001572        2.5036381456



     Writing config-only to output data dir ./pwscf.save/
     NEW-OLD atomic charge density approx. for the potential

     Check: negative core charge=   -0.000004

     negative rho (up, down):  2.265E-03 0.000E+00

     total cpu time spent up to now is       77.7 secs

     Self-consistent Calculation

     iteration #  1     ecut=    40.00 Ry     beta= 0.70
     Davidson diagonalization with overlap
     ethr =  1.00E-06,  avg # of iterations =  3.0

     negative rho (up, down):  2.258E-03 0.000E+00

     total cpu time spent up to now is       78.1 secs

     total energy              =     -31.79080691 Ry
     estimated scf accuracy    <       0.00004350 Ry

     iteration #  2     ecut=    40.00 Ry     beta= 0.70
     Davidson diagonalization with overlap
     ethr =  5.44E-07,  avg # of iterations =  2.0

     negative rho (up, down):  2.248E-03 0.000E+00

     total cpu time spent up to now is       78.5 secs

     total energy              =     -31.79081783 Ry
     estimated scf accuracy    <       0.00003260 Ry

     iteration #  3     ecut=    40.00 Ry     beta= 0.70
     Davidson diagonalization with overlap
     ethr =  4.07E-07,  avg # of iterations =  2.0

     negative rho (up, down):  2.243E-03 0.000E+00

     total cpu time spent up to now is       78.8 secs

     End of self-consistent calculation

          k = 0.0000 0.0000 0.0000 (  3625 PWs)   bands (ev):

   -20.4674 -10.5736 -10.5546  -5.5918  -1.0745   2.0664   2.4912   2.6512

     the Fermi energy is    -3.3332 ev

!    total energy              =     -31.79082426 Ry
     estimated scf accuracy    <       0.00000010 Ry
     smearing contrib. (-TS)   =      -0.00000092 Ry
     internal energy E=F+TS    =     -31.79082334 Ry

     convergence has been achieved in   3 iterations

     negative rho (up, down):  2.243E-03 0.000E+00

     Forces acting on atoms (cartesian axes, Ry/au):

     atom    1 type  2   force =     0.00029299   -0.00068289   -0.01223552
     atom    2 type  1   force =    -0.01100227   -0.00562840    0.00400457
     atom    3 type  1   force =     0.01108252   -0.00611420    0.00390904
     atom    4 type  1   force =    -0.00037324    0.01242548    0.00432190

     Total force =     0.025840     Total SCF correction =     0.000251

     Entering FIRE :       iteration =    49

     FIRE Parameters: P = 0.00000166, dt = 10.00, alpha = 0.200 nsteppos =   2 at step 49


ATOMIC_POSITIONS (angstrom)
N            -0.0000469285       -0.0017533823        2.9031867199
H             0.8233912438        0.4729978883        2.5139784178
H            -0.8216611639        0.4743962965        2.5114242219
H             0.0013448301       -0.9482665732        2.5048090282



     Writing config-only to output data dir ./pwscf.save/
     NEW-OLD atomic charge density approx. for the potential

     Check: negative core charge=   -0.000004

     negative rho (up, down):  2.285E-03 0.000E+00

     total cpu time spent up to now is       79.3 secs

     Self-consistent Calculation

     iteration #  1     ecut=    40.00 Ry     beta= 0.70
     Davidson diagonalization with overlap
     ethr =  1.00E-06,  avg # of iterations =  3.0

     negative rho (up, down):  2.276E-03 0.000E+00

     total cpu time spent up to now is       79.6 secs

     total energy              =     -31.79100709 Ry
     estimated scf accuracy    <       0.00006845 Ry

     iteration #  2     ecut=    40.00 Ry     beta= 0.70
     Davidson diagonalization with overlap
     ethr =  8.56E-07,  avg # of iterations =  2.0

     negative rho (up, down):  2.264E-03 0.000E+00

     total cpu time spent up to now is       79.9 secs

     total energy              =     -31.79102388 Ry
     estimated scf accuracy    <       0.00004828 Ry

     iteration #  3     ecut=    40.00 Ry     beta= 0.70
     Davidson diagonalization with overlap
     ethr =  6.04E-07,  avg # of iterations =  2.0

     negative rho (up, down):  2.257E-03 0.000E+00

     total cpu time spent up to now is       80.2 secs

     End of self-consistent calculation

          k = 0.0000 0.0000 0.0000 (  3625 PWs)   bands (ev):

   -20.5006 -10.6058 -10.5904  -5.5814  -1.0676   2.0785   2.4972   2.6594

     the Fermi energy is    -3.3245 ev

!    total energy              =     -31.79103360 Ry
     estimated scf accuracy    <       0.00000020 Ry
     smearing contrib. (-TS)   =      -0.00000094 Ry
     internal energy E=F+TS    =     -31.79103266 Ry

     convergence has been achieved in   3 iterations

     negative rho (up, down):  2.257E-03 0.000E+00

     Forces acting on atoms (cartesian axes, Ry/au):

     atom    1 type  2   force =     0.00013840   -0.00011734   -0.00584274
     atom    2 type  1   force =    -0.00650412   -0.00312898    0.00194361
     atom    3 type  1   force =     0.00669543   -0.00362579    0.00190033
     atom    4 type  1   force =    -0.00032971    0.00687210    0.00199880

     Total force =     0.014246     Total SCF correction =     0.000388

     Entering FIRE :       iteration =    50

     FIRE Parameters: P = 0.00000123, dt = 10.00, alpha = 0.200 nsteppos =   3 at step 50


ATOMIC_POSITIONS (angstrom)
N             0.0000278347       -0.0019129913        2.8997270352
H             0.8208045209        0.4716978457        2.5151153438
H            -0.8190497576        0.4729650988        2.5125357105
H             0.0012453836       -0.9453757238        2.5060202982



     Writing config-only to output data dir ./pwscf.save/
     NEW-OLD atomic charge density approx. for the potential

     Check: negative core charge=   -0.000004

     negative rho (up, down):  2.306E-03 0.000E+00

     total cpu time spent up to now is       80.7 secs

     Self-consistent Calculation

     iteration #  1     ecut=    40.00 Ry     beta= 0.70
     Davidson diagonalization with overlap
     ethr =  1.00E-06,  avg # of iterations =  3.0

     negative rho (up, down):  2.297E-03 0.000E+00

     total cpu time spent up to now is       81.0 secs

     total energy              =     -31.79108911 Ry
     estimated scf accuracy    <       0.00008017 Ry

     iteration #  2     ecut=    40.00 Ry     beta= 0.70
     Davidson diagonalization with overlap
     ethr =  1.00E-06,  avg # of iterations =  2.0

     negative rho (up, down):  2.283E-03 0.000E+00

     total cpu time spent up to now is       81.3 secs

     total energy              =     -31.79110895 Ry
     estimated scf accuracy    <       0.00005026 Ry

     iteration #  3     ecut=    40.00 Ry     beta= 0.70
     Davidson diagonalization with overlap
     ethr =  6.28E-07,  avg # of iterations =  2.0

     negative rho (up, down):  2.275E-03 0.000E+00

     total cpu time spent up to now is       81.6 secs

     End of self-consistent calculation

          k = 0.0000 0.0000 0.0000 (  3625 PWs)   bands (ev):

   -20.5399 -10.6420 -10.6302  -5.5718  -1.0600   2.0917   2.5040   2.6682

     the Fermi energy is    -3.3159 ev

!    total energy              =     -31.79111940 Ry
     estimated scf accuracy    <       0.00000036 Ry
     smearing contrib. (-TS)   =      -0.00000095 Ry
     internal energy E=F+TS    =     -31.79111845 Ry

     convergence has been achieved in   3 iterations

     negative rho (up, down):  2.275E-03 0.000E+00

     Forces acting on atoms (cartesian axes, Ry/au):

     atom    1 type  2   force =     0.00000884    0.00031455    0.00139810
     atom    2 type  1   force =    -0.00113397   -0.00013986   -0.00040631
     atom    3 type  1   force =     0.00139659   -0.00060644   -0.00041639
     atom    4 type  1   force =    -0.00027146    0.00043174   -0.00057540

     Total force =     0.002570     Total SCF correction =     0.000475
     SCF correction compared to forces is large: reduce conv_thr to get better values

     Entering FIRE :       iteration =    51

     FIRE Parameters: P = 0.00000004, dt = 10.00, alpha = 0.200 nsteppos =   4 at step 51


ATOMIC_POSITIONS (angstrom)
N             0.0000925074       -0.0018676185        2.8977284884
H             0.8181112596        0.4705808653        2.5158013424
H            -0.8161922607        0.4714864926        2.5131958149
H             0.0010164753       -0.9428255102        2.5066727421



     Writing config-only to output data dir ./pwscf.save/
     NEW-OLD atomic charge density approx. for the potential

     Check: negative core charge=   -0.000004

     negative rho (up, down):  2.315E-03 0.000E+00

     total cpu time spent up to now is       82.1 secs

     Self-consistent Calculation

     iteration #  1     ecut=    40.00 Ry     beta= 0.70
     Davidson diagonalization with overlap
     ethr =  1.00E-06,  avg # of iterations =  3.0

     negative rho (up, down):  2.309E-03 0.000E+00

     total cpu time spent up to now is       82.4 secs

     total energy              =     -31.79104862 Ry
     estimated scf accuracy    <       0.00005045 Ry

     iteration #  2     ecut=    40.00 Ry     beta= 0.70
     Davidson diagonalization with overlap
     ethr =  6.31E-07,  avg # of iterations =  2.0

     negative rho (up, down):  2.298E-03 0.000E+00

     total cpu time spent up to now is       82.7 secs

     total energy              =     -31.79106097 Ry
     estimated scf accuracy    <       0.00003319 Ry

     iteration #  3     ecut=    40.00 Ry     beta= 0.70
     Davidson diagonalization with overlap
     ethr =  4.15E-07,  avg # of iterations =  2.0

     negative rho (up, down):  2.293E-03 0.000E+00

     total cpu time spent up to now is       83.1 secs

     End of self-consistent calculation

          k = 0.0000 0.0000 0.0000 (  3625 PWs)   bands (ev):

   -20.5747 -10.6692 -10.6588  -5.5678  -1.0538   2.1025   2.5105   2.6755

     the Fermi energy is    -3.3108 ev

!    total energy              =     -31.79106781 Ry
     estimated scf accuracy    <       0.00000021 Ry
     smearing contrib. (-TS)   =      -0.00000094 Ry
     internal energy E=F+TS    =     -31.79106688 Ry

     convergence has been achieved in   3 iterations

     negative rho (up, down):  2.293E-03 0.000E+00

     Forces acting on atoms (cartesian axes, Ry/au):

     atom    1 type  2   force =     0.00014133   -0.00038113    0.00724822
     atom    2 type  1   force =     0.00386777    0.00256743   -0.00239298
     atom    3 type  1   force =    -0.00384432    0.00236885   -0.00248238
     atom    4 type  1   force =    -0.00016478   -0.00455515   -0.00237286

     Total force =     0.011530     Total SCF correction =     0.000454

     Entering FIRE :       iteration =    52

     FIRE Parameters: P = -.00000092, dt =  5.00, alpha = 0.200 nsteppos =   0 at step 52


ATOMIC_POSITIONS (angstrom)
N             0.0000622224       -0.0018958369        2.8988329683
H             0.8195140301        0.4711766213        2.5154236095
H            -0.8176768086        0.4722601790        2.5128297314
H             0.0011285378       -0.9441667341        2.5063120786



     Writing config-only to output data dir ./pwscf.save/
     NEW-OLD atomic charge density approx. for the potential

     Check: negative core charge=   -0.000004

     negative rho (up, down):  2.271E-03 0.000E+00

     total cpu time spent up to now is       83.6 secs

     Self-consistent Calculation

     iteration #  1     ecut=    40.00 Ry     beta= 0.70
     Davidson diagonalization with overlap
     ethr =  1.00E-06,  avg # of iterations =  2.0

     negative rho (up, down):  2.274E-03 0.000E+00

     total cpu time spent up to now is       83.9 secs

     total energy              =     -31.79110283 Ry
     estimated scf accuracy    <       0.00001985 Ry

     iteration #  2     ecut=    40.00 Ry     beta= 0.70
     Davidson diagonalization with overlap
     ethr =  2.48E-07,  avg # of iterations =  2.0

     negative rho (up, down):  2.280E-03 0.000E+00

     total cpu time spent up to now is       84.2 secs

     total energy              =     -31.79110788 Ry
     estimated scf accuracy    <       0.00001361 Ry

     iteration #  3     ecut=    40.00 Ry     beta= 0.70
     Davidson diagonalization with overlap
     ethr =  1.70E-07,  avg # of iterations =  2.0

     negative rho (up, down):  2.283E-03 0.000E+00

     total cpu time spent up to now is       84.5 secs

     End of self-consistent calculation

          k = 0.0000 0.0000 0.0000 (  3625 PWs)   bands (ev):

   -20.5549 -10.6532 -10.6423  -5.5684  -1.0580   2.0953   2.5064   2.6708

     the Fermi energy is    -3.3132 ev

!    total energy              =     -31.79111059 Ry
     estimated scf accuracy    <       0.00000005 Ry
     smearing contrib. (-TS)   =      -0.00000095 Ry
     internal energy E=F+TS    =     -31.79110964 Ry

     convergence has been achieved in   3 iterations

     negative rho (up, down):  2.283E-03 0.000E+00

     Forces acting on atoms (cartesian axes, Ry/au):

     atom    1 type  2   force =     0.00007025   -0.00003022    0.00429724
     atom    2 type  1   force =     0.00127971    0.00116484   -0.00139247
     atom    3 type  1   force =    -0.00113139    0.00082901   -0.00143920
     atom    4 type  1   force =    -0.00021858   -0.00196363   -0.00146557

     Total force =     0.005788     Total SCF correction =     0.000151

     Entering FIRE :       iteration =    53

     FIRE Parameters: P = 0.00000003, dt =  5.00, alpha = 0.200 nsteppos =   1 at step 53


ATOMIC_POSITIONS (angstrom)
N             0.0000652855       -0.0019008741        2.8990041162
H             0.8195848453        0.4712300121        2.5153676368
H            -0.8177443493        0.4723044661        2.5127717748
H             0.0011222000       -0.9442593748        2.5062548600



     Writing config-only to output data dir ./pwscf.save/
     NEW-OLD atomic charge density approx. for the potential

     Check: negative core charge=   -0.000004

     negative rho (up, down):  2.281E-03 0.000E+00

     total cpu time spent up to now is       85.0 secs

     Self-consistent Calculation

     iteration #  1     ecut=    40.00 Ry     beta= 0.70
     Davidson diagonalization with overlap
     ethr =  1.00E-06,  avg # of iterations =  2.0

     Threshold (ethr) on eigenvalues was too large:
     Diagonalizing with lowered threshold

     Davidson diagonalization with overlap
     ethr =  8.40E-10,  avg # of iterations =  1.0

     negative rho (up, down):  2.282E-03 0.000E+00

     total cpu time spent up to now is       85.5 secs

     End of self-consistent calculation

          k = 0.0000 0.0000 0.0000 (  3625 PWs)   bands (ev):

   -20.5528 -10.6511 -10.6403  -5.5689  -1.0579   2.0953   2.5065   2.6709

     the Fermi energy is    -3.3134 ev

!    total energy              =     -31.79111313 Ry
     estimated scf accuracy    <       0.00000007 Ry
     smearing contrib. (-TS)   =      -0.00000095 Ry
     internal energy E=F+TS    =     -31.79111218 Ry

     convergence has been achieved in   1 iterations

     negative rho (up, down):  2.282E-03 0.000E+00

     Forces acting on atoms (cartesian axes, Ry/au):

     atom    1 type  2   force =     0.00006865   -0.00002088    0.00397431
     atom    2 type  1   force =     0.00110762    0.00105571   -0.00128602
     atom    3 type  1   force =    -0.00096142    0.00072562   -0.00133065
     atom    4 type  1   force =    -0.00021485   -0.00176045   -0.00135763

     Total force =     0.005292     Total SCF correction =     0.000438

     Entering FIRE :       iteration =    54

     FIRE Parameters: P = 0.00000004, dt =  5.00, alpha = 0.200 nsteppos =   2 at step 54


ATOMIC_POSITIONS (angstrom)
N             0.0000693771       -0.0019054031        2.8992360499
H             0.8196679778        0.4712979640        2.5152921133
H            -0.8178213668        0.4723572434        2.5126935970
H             0.0011119934       -0.9443755751        2.5061766276



     Writing config-only to output data dir ./pwscf.save/
     NEW-OLD atomic charge density approx. for the potential

     Check: negative core charge=   -0.000004

     negative rho (up, down):  2.280E-03 0.000E+00

     total cpu time spent up to now is       86.0 secs

     Self-consistent Calculation

     iteration #  1     ecut=    40.00 Ry     beta= 0.70
     Davidson diagonalization with overlap
     ethr =  1.00E-06,  avg # of iterations =  2.0

     Threshold (ethr) on eigenvalues was too large:
     Diagonalizing with lowered threshold

     Davidson diagonalization with overlap
     ethr =  3.42E-10,  avg # of iterations =  1.0

     negative rho (up, down):  2.282E-03 0.000E+00

     total cpu time spent up to now is       86.4 secs

     End of self-consistent calculation

          k = 0.0000 0.0000 0.0000 (  3625 PWs)   bands (ev):

   -20.5517 -10.6493 -10.6387  -5.5703  -1.0583   2.0947   2.5062   2.6704

     the Fermi energy is    -3.3143 ev

!    total energy              =     -31.79111616 Ry
     estimated scf accuracy    <       0.00000003 Ry
     smearing contrib. (-TS)   =      -0.00000094 Ry
     internal energy E=F+TS    =     -31.79111521 Ry

     convergence has been achieved in   1 iterations

     negative rho (up, down):  2.282E-03 0.000E+00

     Forces acting on atoms (cartesian axes, Ry/au):

     atom    1 type  2   force =     0.00006873   -0.00003181    0.00358014
     atom    2 type  1   force =     0.00083998    0.00089232   -0.00115742
     atom    3 type  1   force =    -0.00069858    0.00057009   -0.00120118
     atom    4 type  1   force =    -0.00021013   -0.00143060   -0.00122154

     Total force =     0.004637     Total SCF correction =     0.000321

     Entering FIRE :       iteration =    55

     FIRE Parameters: P = 0.00000005, dt =  5.00, alpha = 0.200 nsteppos =   3 at step 55


ATOMIC_POSITIONS (angstrom)
N             0.0000746095       -0.0019099330        2.8995236487
H             0.8197584275        0.4713777610        2.5151987023
H            -0.8179028937        0.4724157157        2.5125968152
H             0.0010978383       -0.9445093145        2.5060792216



     Writing config-only to output data dir ./pwscf.save/
     NEW-OLD atomic charge density approx. for the potential

     Check: negative core charge=   -0.000004

     negative rho (up, down):  2.279E-03 0.000E+00

     total cpu time spent up to now is       86.9 secs

     Self-consistent Calculation

     iteration #  1     ecut=    40.00 Ry     beta= 0.70
     Davidson diagonalization with overlap
     ethr =  1.00E-06,  avg # of iterations =  2.0

     Threshold (ethr) on eigenvalues was too large:
     Diagonalizing with lowered threshold

     Davidson diagonalization with overlap
     ethr =  2.25E-09,  avg # of iterations =  1.0

     negative rho (up, down):  2.281E-03 0.000E+00

     total cpu time spent up to now is       87.4 secs

     End of self-consistent calculation

          k = 0.0000 0.0000 0.0000 (  3625 PWs)   bands (ev):

   -20.5484 -10.6457 -10.6352  -5.5702  -1.0586   2.0942   2.5060   2.6701

     the Fermi energy is    -3.3144 ev

!    total energy              =     -31.79111920 Ry
     estimated scf accuracy    <       0.00000019 Ry
     smearing contrib. (-TS)   =      -0.00000095 Ry
     internal energy E=F+TS    =     -31.79111825 Ry

     convergence has been achieved in   1 iterations

     negative rho (up, down):  2.281E-03 0.000E+00

     Forces acting on atoms (cartesian axes, Ry/au):

     atom    1 type  2   force =     0.00007090   -0.00005244    0.00315279
     atom    2 type  1   force =     0.00060007    0.00074078   -0.00101942
     atom    3 type  1   force =    -0.00046788    0.00043164   -0.00106297
     atom    4 type  1   force =    -0.00020310   -0.00111999   -0.00107040

     Total force =     0.003984     Total SCF correction =     0.000464
     SCF correction compared to forces is large: reduce conv_thr to get better values

     Entering FIRE :       iteration =    56

     FIRE Parameters: P = 0.00000005, dt =  5.00, alpha = 0.200 nsteppos =   4 at step 56


ATOMIC_POSITIONS (angstrom)
N             0.0000812147       -0.0019153461        2.8998613072
H             0.8198512627        0.4714668757        2.5150891890
H            -0.8179840801        0.4724772222        2.5124831190
H             0.0010795842       -0.9446545225        2.5059647726



     Writing config-only to output data dir ./pwscf.save/
     NEW-OLD atomic charge density approx. for the potential

     Check: negative core charge=   -0.000004

     negative rho (up, down):  2.278E-03 0.000E+00

     total cpu time spent up to now is       87.9 secs

     Self-consistent Calculation

     iteration #  1     ecut=    40.00 Ry     beta= 0.70
     Davidson diagonalization with overlap
     ethr =  1.00E-06,  avg # of iterations =  2.0

     Threshold (ethr) on eigenvalues was too large:
     Diagonalizing with lowered threshold

     Davidson diagonalization with overlap
     ethr =  6.97E-10,  avg # of iterations =  2.0

     negative rho (up, down):  2.281E-03 0.000E+00

     total cpu time spent up to now is       88.4 secs

     End of self-consistent calculation

          k = 0.0000 0.0000 0.0000 (  3625 PWs)   bands (ev):

   -20.5484 -10.6445 -10.6342  -5.5736  -1.0593   2.0933   2.5055   2.6692

     the Fermi energy is    -3.3165 ev

!    total energy              =     -31.79112220 Ry
     estimated scf accuracy    <       0.00000007 Ry
     smearing contrib. (-TS)   =      -0.00000093 Ry
     internal energy E=F+TS    =     -31.79112126 Ry

     convergence has been achieved in   1 iterations

     negative rho (up, down):  2.281E-03 0.000E+00

     Forces acting on atoms (cartesian axes, Ry/au):

     atom    1 type  2   force =     0.00007614   -0.00008155    0.00263465
     atom    2 type  1   force =     0.00020954    0.00050124   -0.00085158
     atom    3 type  1   force =    -0.00009045    0.00020822   -0.00089477
     atom    4 type  1   force =    -0.00019522   -0.00062791   -0.00088831

     Total force =     0.003170     Total SCF correction =     0.000613
     SCF correction compared to forces is large: reduce conv_thr to get better values

     Entering FIRE :       iteration =    57

     FIRE Parameters: P = 0.00000004, dt =  5.00, alpha = 0.200 nsteppos =   5 at step 57


ATOMIC_POSITIONS (angstrom)
N             0.0000897472       -0.0019231559        2.9002438428
H             0.8199344710        0.4715595531        2.5149652455
H            -0.8180528883        0.4725353112        2.5123539864
H             0.0010566516       -0.9447974791        2.5058353131



     Writing config-only to output data dir ./pwscf.save/
     NEW-OLD atomic charge density approx. for the potential

     Check: negative core charge=   -0.000004

     negative rho (up, down):  2.278E-03 0.000E+00

     total cpu time spent up to now is       88.9 secs

     Self-consistent Calculation

     iteration #  1     ecut=    40.00 Ry     beta= 0.70
     Davidson diagonalization with overlap
     ethr =  1.00E-06,  avg # of iterations =  2.0

     Threshold (ethr) on eigenvalues was too large:
     Diagonalizing with lowered threshold

     Davidson diagonalization with overlap
     ethr =  8.53E-09,  avg # of iterations =  1.0

     negative rho (up, down):  2.279E-03 0.000E+00

     total cpu time spent up to now is       89.3 secs

     End of self-consistent calculation

          k = 0.0000 0.0000 0.0000 (  3625 PWs)   bands (ev):

   -20.5424 -10.6381 -10.6281  -5.5712  -1.0595   2.0930   2.5054   2.6692

     the Fermi energy is    -3.3154 ev

!    total energy              =     -31.79112431 Ry
     estimated scf accuracy    <       0.00000073 Ry
     smearing contrib. (-TS)   =      -0.00000095 Ry
     internal energy E=F+TS    =     -31.79112337 Ry

     convergence has been achieved in   1 iterations

     negative rho (up, down):  2.279E-03 0.000E+00

     Forces acting on atoms (cartesian axes, Ry/au):

     atom    1 type  2   force =     0.00007844   -0.00011434    0.00210852
     atom    2 type  1   force =     0.00001857    0.00036951   -0.00068135
     atom    3 type  1   force =     0.00008671    0.00009762   -0.00072543
     atom    4 type  1   force =    -0.00018371   -0.00035279   -0.00070173

     Total force =     0.002502     Total SCF correction =     0.000526
     SCF correction compared to forces is large: reduce conv_thr to get better values

     Entering FIRE :       iteration =    58

     FIRE Parameters: P = 0.00000004, dt =  5.50, alpha = 0.198 nsteppos =   6 at step 58


ATOMIC_POSITIONS (angstrom)
N             0.0001019842       -0.0019369110        2.9007079155
H             0.8200089923        0.4716634992        2.5148149928
H            -0.8181083849        0.4725924187        2.5121965090
H             0.0010253899       -0.9449447775        2.5056789705



     Writing config-only to output data dir ./pwscf.save/
     NEW-OLD atomic charge density approx. for the potential

     Check: negative core charge=   -0.000004

     negative rho (up, down):  2.275E-03 0.000E+00

     total cpu time spent up to now is       89.8 secs

     Self-consistent Calculation

     iteration #  1     ecut=    40.00 Ry     beta= 0.70
     Davidson diagonalization with overlap
     ethr =  1.00E-06,  avg # of iterations =  2.0

     Threshold (ethr) on eigenvalues was too large:
     Diagonalizing with lowered threshold

     Davidson diagonalization with overlap
     ethr =  7.90E-09,  avg # of iterations =  1.0

     negative rho (up, down):  2.282E-03 0.000E+00

     total cpu time spent up to now is       90.3 secs

     End of self-consistent calculation

          k = 0.0000 0.0000 0.0000 (  3625 PWs)   bands (ev):

   -20.5468 -10.6398 -10.6302  -5.5802  -1.0606   2.0915   2.5047   2.6675

     the Fermi energy is    -3.3204 ev

!    total energy              =     -31.79112634 Ry
     estimated scf accuracy    <       0.00000074 Ry
     smearing contrib. (-TS)   =      -0.00000091 Ry
     internal energy E=F+TS    =     -31.79112543 Ry

     convergence has been achieved in   1 iterations

     negative rho (up, down):  2.282E-03 0.000E+00

     Forces acting on atoms (cartesian axes, Ry/au):

     atom    1 type  2   force =     0.00008436   -0.00013848    0.00145057
     atom    2 type  1   force =    -0.00058093   -0.00000241   -0.00046893
     atom    3 type  1   force =     0.00066669   -0.00024831   -0.00051187
     atom    4 type  1   force =    -0.00017012    0.00038920   -0.00046977

     Total force =     0.001964     Total SCF correction =     0.001174
     SCF correction compared to forces is large: reduce conv_thr to get better values

     Entering FIRE :       iteration =    59

     FIRE Parameters: P = 0.00000002, dt =  6.05, alpha = 0.196 nsteppos =   7 at step 59


ATOMIC_POSITIONS (angstrom)
N             0.0001198311       -0.0019606075        2.9012391287
H             0.8200265201        0.4717552259        2.5146430620
H            -0.8181019459        0.4726222453        2.5120146134
H             0.0009835762       -0.9450426344        2.5055015837



     Writing config-only to output data dir ./pwscf.save/
     NEW-OLD atomic charge density approx. for the potential

     Check: negative core charge=   -0.000004

     negative rho (up, down):  2.278E-03 0.000E+00

     total cpu time spent up to now is       90.8 secs

     Self-consistent Calculation

     iteration #  1     ecut=    40.00 Ry     beta= 0.70
     Davidson diagonalization with overlap
     ethr =  1.00E-06,  avg # of iterations =  2.0

     Threshold (ethr) on eigenvalues was too large:
     Diagonalizing with lowered threshold

     Davidson diagonalization with overlap
     ethr =  5.33E-08,  avg # of iterations =  1.0

     negative rho (up, down):  2.276E-03 0.000E+00

     total cpu time spent up to now is       91.3 secs

     total energy              =     -31.79112602 Ry
     estimated scf accuracy    <       0.00000458 Ry

     iteration #  2     ecut=    40.00 Ry     beta= 0.70
     Davidson diagonalization with overlap
     ethr =  5.72E-08,  avg # of iterations =  2.0

     negative rho (up, down):  2.279E-03 0.000E+00

     total cpu time spent up to now is       91.6 secs

     total energy              =     -31.79112735 Ry
     estimated scf accuracy    <       0.00000423 Ry

     iteration #  3     ecut=    40.00 Ry     beta= 0.70
     Davidson diagonalization with overlap
     ethr =  5.29E-08,  avg # of iterations =  2.0

     negative rho (up, down):  2.280E-03 0.000E+00

     total cpu time spent up to now is       91.9 secs

     End of self-consistent calculation

          k = 0.0000 0.0000 0.0000 (  3625 PWs)   bands (ev):

   -20.5425 -10.6336 -10.6248  -5.5787  -1.0609   2.0914   2.5046   2.6674

     the Fermi energy is    -3.3198 ev

!    total energy              =     -31.79112810 Ry
     estimated scf accuracy    <          5.7E-09 Ry
     smearing contrib. (-TS)   =      -0.00000092 Ry
     internal energy E=F+TS    =     -31.79112718 Ry

     convergence has been achieved in   3 iterations

     negative rho (up, down):  2.280E-03 0.000E+00
     |> Configuration Files: * Start: initp.xsf | sad0001.xsf | min0001.xsf | min0002.xsf
     |> BLOCK FINALIZE..
     !> CLEANING ARTn | Fail: 0
 ARTn calculation converged, stopping

     Forces acting on atoms (cartesian axes, Ry/au):

     atom    1 type  2   force =     0.00000000    0.00000000    0.00000000
     atom    2 type  1   force =     0.00000000    0.00000000    0.00000000
     atom    3 type  1   force =     0.00000000    0.00000000    0.00000000
     atom    4 type  1   force =     0.00000000    0.00000000    0.00000000

     Total force =     0.000000     Total SCF correction =     0.000045

     FIRE: convergence achieved in  59 steps

     End of FIRE minimization

     Final energy =     -31.7911281013 Ry

Begin final coordinates
     new unit-cell volume =   1728.00000 a.u.^3 (   256.06318 Ang^3 )
     density =      0.11044 g/cm^3

CELL_PARAMETERS (alat= 12.00000000)
   1.000000000   0.000000000   0.000000000
   0.000000000   1.000000000   0.000000000
   0.000000000   0.000000000   1.000000000

ATOMIC_POSITIONS (angstrom)
N             0.0000006633        0.0001566805        3.0222235108
H             0.8175233785        0.4722939697        2.6288644578
H            -0.8175232760        0.4722948789        2.6288679375
H            -0.0000007658       -0.9432995491        2.6275226740
End final coordinates



     Writing all to output data dir ./pwscf.save/

     init_run     :      0.51s CPU      0.55s WALL (       1 calls)
     electrons    :     54.14s CPU     61.69s WALL (      60 calls)
     update_pot   :     10.13s CPU     10.69s WALL (      59 calls)
     forces       :     10.57s CPU     12.07s WALL (      60 calls)

     Called by init_run:
     wfcinit      :      0.05s CPU      0.05s WALL (       1 calls)
     potinit      :      0.13s CPU      0.14s WALL (       1 calls)
     hinit0       :      0.29s CPU      0.31s WALL (       1 calls)

     Called by electrons:
     c_bands      :     16.20s CPU     18.55s WALL (     208 calls)
     sum_band     :      9.64s CPU     11.44s WALL (     208 calls)
     v_of_rho     :     16.96s CPU     19.35s WALL (     246 calls)
     newd         :      4.77s CPU      5.02s WALL (     246 calls)
     PAW_pot      :     16.35s CPU     16.60s WALL (     305 calls)
     mix_rho      :      0.84s CPU      0.98s WALL (     208 calls)

     Called by c_bands:
     init_us_2    :      0.32s CPU      0.45s WALL (     476 calls)
     init_us_2:cp :      0.32s CPU      0.44s WALL (     476 calls)
     regterg      :     15.60s CPU     17.71s WALL (     208 calls)

     Called by *egterg:
     rdiaghg      :      0.25s CPU      0.41s WALL (     665 calls)
     h_psi        :     13.35s CPU     15.16s WALL (     747 calls)
     s_psi        :      0.17s CPU      0.22s WALL (     747 calls)
     g_psi        :      0.09s CPU      0.08s WALL (     538 calls)

     Called by h_psi:
     h_psi:calbec :      1.18s CPU      1.82s WALL (     747 calls)
     vloc_psi     :     11.82s CPU     12.79s WALL (     747 calls)
     add_vuspsi   :      0.28s CPU      0.48s WALL (     747 calls)

     General routines
     calbec       :      2.07s CPU      3.23s WALL (    1254 calls)
     fft          :     10.22s CPU     11.68s WALL (    2835 calls)
     ffts         :      0.75s CPU      0.81s WALL (     208 calls)
     fftw         :     12.58s CPU     14.01s WALL (    5624 calls)

     Parallel routines

     PWSCF        :   1m22.27s CPU   1m32.19s WALL


   This run was terminated on:  11: 8:52  22Jun2023            

=------------------------------------------------------------------------------=
   JOB DONE.
=------------------------------------------------------------------------------=
