 CRYSTAL
 PRIMVEC
    6.350126531    0.000000000    0.000000000
    0.000000000    6.350126531    0.000000000
    0.000000000    0.000000000    6.350126531
 PRIMCOORD
           4           1
N        -0.000038187    0.000526321    2.609940913    0.000085565   -0.000351480    0.000230566
H         0.869480462    0.502004152    2.609369591    0.000895220    0.000593324   -0.000074992
H        -0.869443559    0.502174414    2.609269334   -0.000926445    0.000547957   -0.000075829
H         0.000131416   -1.003433896    2.607511026   -0.000054341   -0.000789801   -0.000079744
